108
Frame 0 box=17.158430
Ar  17.120967  16.061166  16.548064
Ar  1.611773  2.655705  16.666042
Ar  2.443175  0.482868  2.361425
Ar  16.745201  3.330903  2.758615
Ar  0.628554  16.754418  5.518555
Ar  2.762554  3.281272  5.653716
Ar  2.515353  17.005480  8.707857
Ar  16.291837  3.094471  8.200374
Ar  16.230033  0.161333  10.428203
Ar  2.021272  2.439913  11.358687
Ar  2.141249  16.910802  13.580556
Ar  16.133011  2.434628  14.432777
Ar  0.076819  5.867664  16.691256
Ar  3.474052  8.528547  15.377941
Ar  2.563258  5.233294  2.108701
Ar  0.721346  9.332433  0.517356
Ar  16.965011  5.480213  5.643845
Ar  3.275748  7.894309  6.363639
Ar  1.593486  5.604017  8.889747
Ar  15.605032  8.564363  9.051593
Ar  16.794257  5.373519  12.124655
Ar  2.950064  8.280094  11.438945
Ar  2.745686  5.397279  14.060779
Ar  0.152242  8.682367  13.861318
Ar  15.845297  11.954908  15.530173
Ar  2.554192  13.815014  15.576133
Ar  2.135129  11.076470  4.359901
Ar  1.056976  13.987439  2.585716
Ar  15.981177  12.175906  6.153834
Ar  2.884163  13.995234  6.329150
Ar  2.972799  10.822601  9.101400
Ar  17.045026  14.097596  8.872727
Ar  17.009115  11.040881  11.026732
Ar  2.974236  14.162252  10.945920
Ar  2.814921  11.439325  13.292884
Ar  16.248597  14.384073  12.792451
Ar  5.017659  1.010575  16.985889
Ar  7.986943  2.793410  16.916326
Ar  8.041120  0.044612  2.581746
Ar  5.853931  2.791907  3.187394
Ar  4.668768  16.826951  5.647084
Ar  8.707131  3.517684  5.661846
Ar  7.266895  0.305542  8.390370
Ar  4.856738  2.872289  8.252980
Ar  5.180411  0.108104  10.924819
Ar  9.358590  4.560581  11.800470
Ar  7.869245  1.034090  13.748647
Ar  4.919525  3.194964  13.146466
Ar  5.242850  5.177374  17.066645
Ar  7.511657  9.789664  17.036541
Ar  8.111640  5.489848  2.450667
Ar  5.175650  7.875651  2.865260
Ar  5.914024  5.775709  6.172679
Ar  8.313908  8.198763  5.167302
Ar  9.624099  6.617155  8.360652
Ar  5.857042  9.061157  9.089055
Ar  5.979901  5.801091  10.447898
Ar  9.828907  8.925042  11.757888
Ar  9.081341  6.125959  14.811551
Ar  6.335415  8.064233  13.426837
Ar  4.014766  10.787332  0.906336
Ar  7.746492  14.638066  0.286178
Ar  7.755201  11.583119  3.084437
Ar  5.157380  14.588355  2.669877
Ar  5.271325  10.695725  6.094246
Ar  7.551381  14.579647  5.311310
Ar  8.474659  11.057375  7.478646
Ar  5.771524  13.441567  8.329473
Ar  6.476729  11.343599  11.569925
Ar  7.843316  14.703659  11.611741
Ar  8.564504  11.981352  14.488108
Ar  5.353497  15.285858  14.141016
Ar  11.393934  16.650927  0.212219
Ar  14.343337  1.647724  0.560906
Ar  13.536651  0.150291  3.563763
Ar  10.892593  2.540203  2.607438
Ar  10.166494  0.210217  5.714725
Ar  13.987734  2.985111  5.642239
Ar  13.573340  0.341252  8.176741
Ar  11.282036  2.951382  8.129858
Ar  9.965940  0.693187  10.570773
Ar  13.155166  2.836111  11.699128
Ar  13.697294  16.167402  14.800491
Ar  11.814993  2.338863  15.292674
Ar  12.898671  4.919835  0.576870
Ar  14.393251  8.816054  16.901139
Ar  15.486319  7.051376  2.675101
Ar  10.484844  8.148275  1.603551
Ar  12.484220  5.736554  4.048731
Ar  14.234394  8.736560  5.341973
Ar  13.578267  5.880952  7.569182
Ar  12.167464  9.484950  8.737882
Ar  12.260256  6.222637  10.871384
Ar  14.120027  9.651473  12.386083
Ar  13.701822  6.077076  14.253004
Ar  10.949538  9.203451  15.327681
Ar  10.612141  12.134220  0.771525
Ar  14.646877  14.763264  1.384395
Ar  13.855415  11.363536  2.305563
Ar  11.199287  14.550572  3.421764
Ar  11.023659  10.583606  4.838985
Ar  12.935204  14.620381  6.752769
Ar  13.992420  12.393261  9.821595
Ar  9.809798  14.797385  8.526984
Ar  10.570690  12.461253  11.117159
Ar  12.603039  15.368975  11.441168
Ar  13.005063  12.819617  13.735038
Ar  9.992962  15.256502  14.227975
108
Frame 1 box=17.158430
Ar  17.093798  16.103355  16.398554
Ar  2.019043  2.929498  16.911877
Ar  2.979614  0.807984  2.621094
Ar  16.777687  3.169150  3.024036
Ar  0.567635  0.244286  5.385429
Ar  2.640137  3.568065  5.457067
Ar  2.384264  17.062915  8.706184
Ar  16.789379  2.887060  7.926338
Ar  16.632954  0.225706  10.909941
Ar  2.067838  2.726632  10.617496
Ar  2.016306  17.120281  13.558774
Ar  16.340302  2.251180  14.151285
Ar  16.904384  6.232908  17.079948
Ar  3.525488  8.466223  15.353668
Ar  2.269355  5.559912  2.678908
Ar  0.581095  9.539997  0.450087
Ar  17.143763  5.813463  5.538879
Ar  3.015736  8.085929  6.482682
Ar  1.593486  5.604017  8.889747
Ar  16.496928  8.302551  8.684806
Ar  16.358118  5.615219  11.750823
Ar  2.376622  7.965656  11.407700
Ar  2.331491  5.069815  14.423661
Ar  0.167979  8.698716  14.186998
Ar  16.192250  12.013467  15.632857
Ar  2.125363  13.381817  14.957352
Ar  2.462650  10.939257  3.887678
Ar  0.517051  14.022949  3.276625
Ar  15.764248  12.452164  6.018812
Ar  3.014949  14.475173  6.173408
Ar  2.753540  11.147194  8.860100
Ar  17.100393  14.442997  8.808364
Ar  0.157007  10.697107  11.158004
Ar  2.775097  14.169190  11.086833
Ar  3.538375  11.064043  12.884646
Ar  16.608905  14.077877  12.494783
Ar  5.319282  1.097100  16.608864
Ar  8.105996  3.207969  16.611875
Ar  7.933607  16.797516  2.486465
Ar  6.007707  3.143347  3.166989
Ar  5.484601  0.357550  5.256913
Ar  8.434447  3.152741  5.579324
Ar  7.537159  0.082609  8.048015
Ar  4.807188  3.314487  8.213980
Ar  5.180411  0.108104  10.924819
Ar  8.903899  3.869045  11.290695
Ar  7.799944  0.646969  13.648852
Ar  5.402948  3.140448  12.487334
Ar  5.377194  5.225296  0.484813
Ar  6.781869  9.815405  16.969086
Ar  8.181069  5.840502  2.924025
Ar  4.838470  8.206618  2.788341
Ar  6.107346  5.953754  6.117094
Ar  8.427337  8.428085  5.438896
Ar  8.949649  6.601013  8.851576
Ar  5.596942  9.306876  8.947488
Ar  5.565151  6.007626  10.464149
Ar  9.553751  8.509576  11.694145
Ar  9.259477  6.051418  14.593372
Ar  6.387848  7.703046  13.314458
Ar  3.764947  11.377763  0.565639
Ar  7.619917  14.195902  17.115638
Ar  7.966123  11.620254  3.280196
Ar  5.032326  14.583232  3.100881
Ar  5.314644  11.180790  5.774967
Ar  7.877433  14.763023  5.482270
Ar  8.474659  11.057375  7.478646
Ar  5.602403  13.874546  8.622377
Ar  6.764211  11.207236  11.601093
Ar  7.843316  14.703659  11.611741
Ar  9.232024  11.798246  14.183171
Ar  5.033113  14.783171  13.801393
Ar  11.425662  16.546163  0.590374
Ar  14.628912  1.515675  0.261493
Ar  13.907828  17.055965  3.527196
Ar  10.271785  2.831641  2.514336
Ar  10.560539  0.513631  5.450479
Ar  13.987734  2.985111  5.642239
Ar  14.044483  0.257816  8.362952
Ar  11.025906  3.665876  8.413943
Ar  9.965940  0.693187  10.570773
Ar  13.683452  2.763352  10.849188
Ar  13.715742  15.941074  14.714651
Ar  11.083642  2.256636  14.593473
Ar  13.193088  5.067909  0.645056
Ar  14.174806  9.190273  16.604017
Ar  14.948366  6.783212  2.966745
Ar  10.418918  8.086529  1.832364
Ar  11.803409  5.437809  4.349343
Ar  14.182544  8.999992  5.796644
Ar  14.037892  5.948797  7.508904
Ar  11.253096  9.539764  8.974685
Ar  12.621141  6.146328  10.733671
Ar  14.224048  9.716747  12.442934
Ar  13.691556  6.265521  14.644512
Ar  11.229025  8.958714  14.713008
Ar  10.912028  12.013467  0.919143
Ar  14.429343  14.461278  0.553639
Ar  14.144428  11.193155  3.044989
Ar  10.578667  14.118690  3.694617
Ar  11.248317  10.792547  4.898286
Ar  12.786996  14.597548  6.671498
Ar  14.248736  11.782843  9.676399
Ar  9.809798  14.797385  8.526984
Ar  10.594430  12.329714  11.057695
Ar  12.626641  15.655988  11.090450
Ar  12.894681  12.327387  14.240331
Ar  10.121343  15.360436  14.430966
108
Frame 2 box=17.158430
Ar  0.046066  16.651772  0.015534
Ar  1.748803  2.752561  16.929983
Ar  2.958521  0.206828  2.424606
Ar  16.489552  3.346333  2.746853
Ar  17.066440  0.746675  5.385319
Ar  2.291230  3.507887  4.976851
Ar  2.001544  0.049762  8.641471
Ar  16.814383  3.374743  8.312648
Ar  16.632954  0.225706  10.909941
Ar  2.064696  2.634869  10.817094
Ar  2.247979  0.339642  13.626388
Ar  15.970649  2.202774  13.690832
Ar  16.996369  5.692526  16.974908
Ar  3.525488  8.466223  15.353668
Ar  2.182008  6.244151  2.468803
Ar  0.673301  9.244105  0.963552
Ar  0.087800  6.175769  5.875740
Ar  3.062275  7.966761  5.719258
Ar  2.424530  5.941757  8.679536
Ar  16.208941  8.616221  8.850750
Ar  16.234060  5.929921  11.429466
Ar  2.617928  7.930662  11.288518
Ar  1.572463  4.965844  13.865863
Ar  17.083063  8.217869  14.154316
Ar  16.148169  11.818379  15.145046
Ar  2.125363  13.381817  14.957352
Ar  2.061447  11.337120  3.690867
Ar  0.205946  14.509873  3.187694
Ar  16.204361  11.984422  5.557343
Ar  2.637335  14.525223  6.171285
Ar  2.323998  10.900032  8.119333
Ar  17.021098  14.423163  8.465337
Ar  0.195888  10.907813  11.170586
Ar  3.061451  14.079764  10.732791
Ar  3.538375  11.064043  12.884646
Ar  16.638358  14.226597  12.253291
Ar  5.319282  1.097100  16.608864
Ar  8.118616  3.364362  16.794499
Ar  7.441128  16.684840  2.896842
Ar  5.762639  3.357861  3.179272
Ar  4.562806  0.257677  5.407791
Ar  8.434447  3.152741  5.579324
Ar  7.387876  0.328026  8.046746
Ar  5.428364  2.914342  7.846713
Ar  4.963290  16.904853  11.323801
Ar  9.299953  4.229995  11.233905
Ar  7.799085  1.036722  13.588427
Ar  5.402948  3.140448  12.487334
Ar  5.512112  5.547821  0.169545
Ar  7.111896  9.646877  16.491290
Ar  8.564856  5.879626  2.459259
Ar  5.290097  8.220259  3.031243
Ar  5.954441  5.731891  5.780186
Ar  8.349920  8.630221  5.068819
Ar  8.893191  6.764803  8.396990
Ar  5.575053  8.979231  8.722956
Ar  5.565151  6.007626  10.464149
Ar  9.029638  8.907685  11.597314
Ar  9.073477  5.606990  14.129254
Ar  6.312654  8.039237  13.523164
Ar  3.900046  11.164483  0.422544
Ar  6.805549  14.374350  0.004712
Ar  7.890654  11.764865  2.981538
Ar  4.663526  14.064475  2.982377
Ar  5.314644  11.180790  5.774967
Ar  7.422895  14.445023  5.549938
Ar  8.741495  11.710128  7.448408
Ar  5.606987  14.157055  8.614019
Ar  6.553558  11.897932  11.237420
Ar  8.374788  14.895564  12.030177
Ar  8.802547  12.165606  14.470260
Ar  5.639276  14.528195  14.020715
Ar  10.958901  16.530176  0.884380
Ar  14.571184  1.762349  0.068194
Ar  13.724152  0.377077  3.393935
Ar  9.819046  2.471013  2.460108
Ar  10.270841  0.009122  5.304695
Ar  13.814211  2.618491  5.861147
Ar  13.936982  0.544832  8.874049
Ar  11.052850  3.876721  8.326688
Ar  9.942445  0.817250  10.706180
Ar  13.746682  3.239445  11.105133
Ar  13.683900  16.531281  14.308055
Ar  11.494507  2.390263  14.330362
Ar  12.864444  5.344386  0.384797
Ar  13.580672  8.829012  0.081576
Ar  15.290112  6.843437  2.842484
Ar  10.440984  8.672428  1.677613
Ar  11.836286  5.503908  4.990928
Ar  14.182544  8.999992  5.796644
Ar  14.235651  5.836379  8.142106
Ar  11.624817  9.410934  8.302017
Ar  12.160642  6.623716  11.354110
Ar  13.813796  9.884048  12.316536
Ar  13.743134  6.322233  14.510439
Ar  10.830748  8.794491  14.788006
Ar  10.650558  11.846817  0.465512
Ar  13.954209  14.621987  17.152933
Ar  14.292165  11.118284  2.582043
Ar  10.578667  14.118690  3.694617
Ar  11.248317  10.792547  4.898286
Ar  13.328720  14.739187  5.909460
Ar  14.142361  12.515224  8.935730
Ar  9.809798  14.797385  8.526984
Ar  10.590804  12.192317  11.116032
Ar  12.594235  14.992453  11.246516
Ar  12.518231  12.340977  14.697440
Ar  9.820979  15.466760  14.936951
108
Frame 3 box=17.158430
Ar  0.420154  15.936469  16.965128
Ar  1.635586  2.724114  16.629137
Ar  3.231328  0.514109  2.373472
Ar  16.527069  3.031142  2.147078
Ar  17.005527  0.731176  6.177487
Ar  2.689248  3.151393  6.153231
Ar  2.311552  0.055639  8.926112
Ar  16.595331  3.400334  8.379570
Ar  16.635218  0.472680  10.841114
Ar  2.007758  2.372309  11.361276
Ar  1.872043  16.938947  13.907174
Ar  16.586631  2.911358  13.988064
Ar  16.938809  5.885423  16.860070
Ar  3.330555  8.135117  15.748489
Ar  2.192320  6.658081  2.473200
Ar  0.218539  9.642168  0.953697
Ar  0.050013  6.125444  5.689129
Ar  2.987985  8.266602  5.781755
Ar  2.631082  5.646242  8.472957
Ar  16.013859  8.585278  9.275120
Ar  15.915393  5.621485  11.375092
Ar  2.617928  7.930662  11.288518
Ar  2.172900  5.490968  13.887369
Ar  17.070273  8.152335  14.110191
Ar  16.571209  11.916784  15.258926
Ar  2.402474  13.482854  15.215479
Ar  1.980571  12.045903  3.862082
Ar  0.304492  15.168947  3.634951
Ar  16.893659  12.713722  6.085628
Ar  2.888199  14.532209  6.421713
Ar  2.521901  11.301372  8.470426
Ar  16.604796  14.962463  8.882546
Ar  17.128687  11.221651  11.179912
Ar  2.302157  14.257997  11.350864
Ar  3.400685  11.181902  12.398316
Ar  15.974983  14.239517  12.382314
Ar  4.782230  1.438649  16.058473
Ar  8.808339  2.742635  16.606094
Ar  7.760819  16.991025  2.598475
Ar  5.762639  3.357861  3.179272
Ar  5.036980  0.364922  5.747150
Ar  8.235051  2.992890  6.008884
Ar  7.387639  0.033818  8.293392
Ar  5.158880  2.767331  8.337204
Ar  5.063331  16.812307  11.527620
Ar  9.347595  4.238654  11.211547
Ar  8.002442  1.298187  13.357931
Ar  5.192713  3.860970  13.355044
Ar  5.653337  5.554850  17.098877
Ar  7.887467  9.525036  16.768093
Ar  8.821214  5.706848  1.455947
Ar  5.260811  8.437611  2.555569
Ar  5.795016  6.191971  5.266210
Ar  8.182611  8.640076  5.118667
Ar  9.135576  6.793961  7.522972
Ar  5.823768  9.070811  8.911629
Ar  5.592541  5.728657  10.175112
Ar  9.011428  9.130059  11.039957
Ar  8.944677  5.842961  14.346878
Ar  6.137655  8.267955  13.270281
Ar  3.940435  11.017179  0.806041
Ar  7.266114  13.893753  0.259493
Ar  7.761655  11.532935  2.995072
Ar  4.663526  14.064475  2.982377
Ar  5.314644  11.180790  5.774967
Ar  7.354844  14.983793  5.557283
Ar  8.729448  11.245210  7.484075
Ar  5.523525  14.217757  8.902454
Ar  6.553558  11.897932  11.237420
Ar  8.617052  14.918431  11.277157
Ar  8.802547  12.165606  14.470260
Ar  5.460582  14.501928  14.135007
Ar  11.401187  16.667996  1.697390
Ar  14.438392  1.917426  16.785574
Ar  14.443508  0.461753  3.000949
Ar  9.729731  2.720036  2.899279
Ar  10.351491  17.002425  5.326847
Ar  14.269521  3.090566  5.475167
Ar  13.788189  0.798048  8.369668
Ar  11.072769  3.074332  7.963520
Ar  10.795107  0.543453  10.668364
Ar  13.004385  3.290149  11.089533
Ar  13.706328  16.553243  14.175291
Ar  11.481394  2.805485  14.025907
Ar  12.462586  4.587036  0.726612
Ar  14.263426  8.917912  16.834318
Ar  14.587383  6.558164  2.602486
Ar  10.535889  8.735418  1.934158
Ar  11.836286  5.503908  4.990928
Ar  13.925946  8.592530  5.720338
Ar  14.235651  5.836379  8.142106
Ar  11.605394  9.475717  8.374917
Ar  12.278501  7.327796  10.998202
Ar  14.160054  9.956677  12.183538
Ar  13.353851  6.325534  14.503869
Ar  10.821488  9.077029  14.474849
Ar  10.902771  11.710935  0.347639
Ar  14.631143  14.222495  0.898462
Ar  14.025384  11.391566  2.752470
Ar  10.842115  13.722472  3.285718
Ar  11.248317  10.792547  4.898286
Ar  13.590120  15.431456  5.808873
Ar  14.399093  11.775347  8.465134
Ar  10.322820  14.351479  8.165358
Ar  10.699871  12.155016  11.403189
Ar  13.069222  14.505917  11.023040
Ar  12.726851  12.767672  14.588811
Ar  9.728708  15.603804  14.670716
108
Frame 4 box=17.158430
Ar  16.625543  16.217075  16.821594
Ar  1.477246  2.109866  16.995976
Ar  3.018057  0.349905  2.272100
Ar  16.591208  3.634872  2.181857
Ar  17.109993  0.341379  5.879289
Ar  2.689248  3.151393  6.153231
Ar  2.715206  0.548927  8.704179
Ar  16.849538  3.452336  8.197091
Ar  16.434512  0.509797  11.719747
Ar  1.822363  2.708528  11.108185
Ar  2.171481  0.146908  13.672853
Ar  16.586631  2.911358  13.988064
Ar  0.240329  6.186694  16.779243
Ar  3.246227  8.180706  16.002438
Ar  2.686631  6.089314  2.927933
Ar  17.133580  9.842479  0.852640
Ar  0.081874  6.035849  5.341380
Ar  2.336143  8.853878  5.366132
Ar  2.405781  5.793466  8.574470
Ar  16.466927  8.020594  8.800834
Ar  15.529395  5.463473  11.488095
Ar  2.530865  8.408611  10.840189
Ar  2.127021  5.561951  13.002181
Ar  16.795997  8.646045  14.394309
Ar  16.181694  12.039126  15.712384
Ar  1.913450  13.758734  15.097740
Ar  1.876266  11.656856  3.602105
Ar  0.141111  14.960184  3.121860
Ar  16.832118  12.849951  6.318236
Ar  2.672099  14.872886  6.051241
Ar  3.023547  11.353559  8.316227
Ar  16.089709  15.191349  8.823461
Ar  0.094981  11.113011  11.089194
Ar  1.906489  14.399203  11.201014
Ar  3.374718  11.619585  12.768938
Ar  16.123622  14.453440  13.396356
Ar  5.467565  1.825606  16.175454
Ar  8.852886  3.422026  16.866147
Ar  7.728139  17.126709  2.540116
Ar  5.063190  3.276520  2.605523
Ar  5.080318  0.487787  5.526228
Ar  7.949769  2.639726  5.822325
Ar  7.450080  0.043187  8.715855
Ar  5.455746  3.031334  8.445756
Ar  5.205679  0.161054  11.354065
Ar  9.063491  3.734443  10.683003
Ar  7.741514  1.264509  13.379318
Ar  5.777877  3.895999  13.385345
Ar  4.956882  5.371685  17.113643
Ar  7.830645  9.327015  16.905600
Ar  8.152577  6.039972  1.696451
Ar  5.040624  8.661095  2.856967
Ar  6.351852  5.620184  5.714474
Ar  8.041449  8.901808  4.643339
Ar  9.976915  6.329014  7.799064
Ar  5.591414  9.310886  9.001188
Ar  5.883978  6.164379  10.068677
Ar  8.894680  8.693897  10.503897
Ar  8.846426  5.713493  14.445787
Ar  5.875125  8.570917  13.244473
Ar  4.080055  11.092131  0.722270
Ar  7.681103  14.455883  0.088703
Ar  7.921403  11.874937  2.836845
Ar  4.745690  14.180097  2.824883
Ar  5.766109  11.077553  5.950450
Ar  7.666677  14.952193  5.903047
Ar  8.753346  11.250389  7.286948
Ar  5.523525  14.217757  8.902454
Ar  6.654187  11.332126  11.392591
Ar  8.444984  14.558933  11.420988
Ar  8.849733  12.325894  14.371405
Ar  5.850728  14.496265  14.140009
Ar  11.263516  16.974534  1.613235
Ar  14.438392  1.917426  16.785574
Ar  15.074887  0.306716  2.852759
Ar  10.683178  2.908930  2.636462
Ar  11.034375  16.978144  5.953061
Ar  14.269521  3.090566  5.475167
Ar  13.683802  0.684823  8.302850
Ar  11.257878  3.218311  7.646890
Ar  10.512854  0.742636  10.586043
Ar  13.021636  3.173706  11.006938
Ar  13.365726  17.047901  13.799952
Ar  11.168412  2.629836  13.810291
Ar  12.592708  5.185194  0.535880
Ar  13.753030  8.639858  16.950136
Ar  14.945298  6.585529  2.851095
Ar  10.950965  8.530452  1.978597
Ar  11.877402  6.190963  4.790201
Ar  14.180102  8.675502  5.764764
Ar  13.955197  5.843058  7.934525
Ar  11.573998  9.657762  8.151506
Ar  11.955033  6.771808  11.532011
Ar  13.865090  9.601522  11.833799
Ar  13.892968  5.364929  14.529235
Ar  10.862271  9.660904  14.079299
Ar  10.530522  11.716232  0.252395
Ar  13.675807  14.813051  0.468263
Ar  14.237089  11.910817  3.286138
Ar  10.623163  14.133629  3.531967
Ar  11.248317  10.792547  4.898286
Ar  13.372092  14.386009  6.067116
Ar  14.601114  11.368476  8.224666
Ar  10.678866  14.474687  8.476065
Ar  11.087899  11.814876  11.239982
Ar  12.920813  14.476694  11.087330
Ar  12.952662  12.410339  14.463306
Ar  9.647502  15.779663  14.665657
108
Frame 5 box=17.158430
Ar  16.764548  16.339189  16.678526
Ar  1.584050  2.288690  0.116088
Ar  2.566343  0.798934  3.353390
Ar  16.287123  3.982253  2.200090
Ar  17.068305  16.969951  5.937713
Ar  2.805638  3.423433  5.710749
Ar  2.256347  0.543659  8.662608
Ar  16.859045  3.358138  8.148055
Ar  16.341460  0.701564  11.303048
Ar  1.573002  3.196195  11.592074
Ar  1.845090  0.547195  13.945525
Ar  16.073725  3.017475  13.912465
Ar  0.094096  5.597081  16.637315
Ar  3.320951  8.505352  16.206026
Ar  2.029653  6.360640  2.565904
Ar  17.109087  9.338160  0.863348
Ar  17.085419  6.039315  5.442749
Ar  2.245337  8.732646  5.525798
Ar  2.847086  5.931078  8.769757
Ar  16.771032  8.495751  8.684386
Ar  16.154614  5.749588  11.876954
Ar  2.530865  8.408611  10.840189
Ar  2.010079  5.788334  13.695533
Ar  0.381795  8.882417  14.414918
Ar  15.978116  12.152859  15.974161
Ar  2.165232  13.573672  15.365368
Ar  2.039106  11.365247  3.272347
Ar  0.477597  14.916536  3.063398
Ar  17.021689  12.643597  6.145444
Ar  2.883694  14.960618  6.032889
Ar  3.023547  11.353559  8.316227
Ar  16.082141  15.001336  9.148708
Ar  0.303225  11.638235  10.271392
Ar  2.203000  14.707016  11.310809
Ar  3.161320  11.157413  12.915092
Ar  16.300973  14.761323  12.767073
Ar  5.405491  1.872865  16.362215
Ar  9.061727  3.264776  16.930867
Ar  7.865314  16.921638  2.350561
Ar  5.514469  3.583619  2.777798
Ar  5.457879  0.597122  5.505210
Ar  8.274182  3.533283  5.372013
Ar  7.571593  0.484008  8.862927
Ar  5.299362  2.857078  8.749259
Ar  5.281472  16.969090  11.431392
Ar  8.617084  4.009972  11.209973
Ar  7.459432  1.403364  13.708428
Ar  5.096782  3.869677  12.924884
Ar  5.135809  5.811179  0.299327
Ar  6.837840  8.951517  16.896555
Ar  8.152577  6.039972  1.696451
Ar  5.438849  8.787786  2.893072
Ar  5.148501  6.211262  5.791734
Ar  8.781103  8.452778  4.547287
Ar  9.976915  6.329014  7.799064
Ar  5.592691  9.019693  8.788709
Ar  5.994885  6.094840  10.135984
Ar  8.958292  8.504554  10.975932
Ar  8.545105  5.470907  14.310837
Ar  5.869257  8.291970  12.977281
Ar  4.540854  11.923432  0.518008
Ar  8.291680  14.307198  17.032773
Ar  8.256010  11.108397  2.230859
Ar  4.904635  13.921807  3.377317
Ar  5.480796  10.888451  5.697651
Ar  7.752307  14.522569  5.505082
Ar  8.279506  11.381966  7.758336
Ar  5.863045  14.037228  8.601017
Ar  6.502829  11.529117  11.239808
Ar  8.586182  14.759337  11.330235
Ar  8.696688  11.691408  14.219479
Ar  5.633952  14.533067  14.128047
Ar  11.593754  0.248016  1.047124
Ar  14.729592  2.021721  17.015709
Ar  14.595950  0.084488  2.835540
Ar  10.461301  2.846088  2.899293
Ar  11.044986  0.072751  5.575792
Ar  14.711677  2.971437  5.139668
Ar  13.839046  0.460912  8.188164
Ar  11.369302  3.311210  7.536642
Ar  10.921116  0.578504  10.555925
Ar  13.034971  3.465211  11.045075
Ar  13.747232  17.127846  14.227192
Ar  11.219086  2.387434  14.100754
Ar  12.763992  5.108303  0.669240
Ar  13.970222  8.455468  16.495189
Ar  15.071496  7.168348  2.667045
Ar  11.083813  8.397463  2.024920
Ar  12.012969  5.809017  4.874927
Ar  14.180102  8.675502  5.764764
Ar  13.761733  5.735630  8.233339
Ar  11.784441  8.992696  8.303171
Ar  12.356838  7.134414  11.582753
Ar  14.772951  10.066859  12.893307
Ar  13.206484  5.448233  14.575044
Ar  10.796076  8.933528  13.954784
Ar  11.381341  11.611867  0.463849
Ar  13.660774  14.643034  0.246307
Ar  14.739564  12.248590  3.222893
Ar  11.011303  14.252646  3.065736
Ar  10.942067  10.816382  4.800320
Ar  13.344870  14.456537  6.223970
Ar  14.229078  12.251461  9.365421
Ar  10.146276  14.617914  8.018410
Ar  10.380710  11.703551  11.236271
Ar  12.939411  15.002273  11.516423
Ar  12.258545  12.745214  14.114290
Ar  10.260980  15.914997  14.448123
108
Frame 6 box=17.158430
Ar  16.764548  16.339189  16.678526
Ar  1.591666  2.187964  0.068553
Ar  2.195610  0.352297  3.415325
Ar  16.846975  3.390325  2.896120
Ar  17.068305  16.969951  5.937713
Ar  2.358658  3.295138  4.954413
Ar  2.256347  0.543659  8.662608
Ar  16.864305  3.031945  8.107471
Ar  15.821141  0.664595  11.199762
Ar  2.659331  3.617821  10.640912
Ar  2.292709  0.844054  13.890962
Ar  16.073725  3.017475  13.912465
Ar  0.310715  5.865108  16.759584
Ar  3.320951  8.505352  16.206026
Ar  3.011229  6.522405  2.697681
Ar  0.351833  9.292656  0.646131
Ar  0.030724  6.345861  5.504109
Ar  2.456194  8.904905  5.554379
Ar  2.279866  6.362932  8.260670
Ar  16.231546  8.756770  8.832260
Ar  16.226952  5.374240  11.019736
Ar  2.217760  8.835812  11.200110
Ar  2.274537  5.996493  13.597155
Ar  0.292215  9.487982  13.988008
Ar  15.661767  11.885874  15.802161
Ar  1.795355  13.243361  15.367134
Ar  2.642432  11.123338  2.711650
Ar  0.473873  14.219178  2.548216
Ar  16.494779  12.183883  6.389695
Ar  2.373743  14.629998  6.588114
Ar  2.848836  11.439330  7.596281
Ar  16.522330  15.202583  8.904063
Ar  0.186558  11.710518  10.520296
Ar  2.318992  14.709102  11.239400
Ar  3.699934  11.066235  13.354311
Ar  15.903351  14.264028  12.892217
Ar  5.652695  2.302810  16.721554
Ar  9.261225  2.633199  17.019181
Ar  8.195758  0.133453  2.309228
Ar  5.514469  3.583619  2.777798
Ar  4.671209  0.074345  5.634737
Ar  7.958870  3.788409  5.862823
Ar  8.152439  0.190504  8.123837
Ar  5.448484  2.664117  8.835868
Ar  5.016114  16.905231  11.050945
Ar  9.121413  3.785553  10.499555
Ar  7.700145  1.464595  13.198999
Ar  5.490851  4.409048  13.469842
Ar  5.511481  6.014095  17.034652
Ar  8.212982  8.699613  17.012841
Ar  8.231757  5.529876  2.054843
Ar  5.562812  8.969699  2.585393
Ar  5.373055  6.193412  5.654863
Ar  8.771258  7.954996  4.812235
Ar  10.173586  6.220948  8.363748
Ar  5.592691  9.019693  8.788709
Ar  6.444824  5.951710  10.008458
Ar  8.938731  8.698116  10.759861
Ar  8.483296  5.647924  14.148107
Ar  5.897661  8.496634  13.105226
Ar  4.938635  11.397371  16.736023
Ar  8.107706  14.115717  17.133576
Ar  7.971703  11.753161  2.897010
Ar  4.642761  13.730252  2.907491
Ar  6.176122  10.811045  5.728950
Ar  7.265415  14.698338  5.099169
Ar  9.022989  11.403410  7.573096
Ar  5.863045  14.037228  8.601017
Ar  6.941549  11.482546  10.974581
Ar  8.305746  15.000873  11.208980
Ar  8.397696  11.660463  14.274678
Ar  5.232164  14.963568  14.229292
Ar  11.831343  0.559987  0.699601
Ar  14.995511  2.461703  17.002681
Ar  14.995775  16.789050  2.995362
Ar  11.089851  3.268870  2.952277
Ar  10.987759  16.922406  5.184741
Ar  13.887408  2.694203  5.253409
Ar  13.911537  0.696299  8.389763
Ar  11.171108  2.879764  7.427677
Ar  10.921116  0.578504  10.555925
Ar  13.034971  3.465211  11.045075
Ar  13.959245  16.783323  14.432188
Ar  11.136554  2.525896  13.962334
Ar  12.500718  5.539496  0.733675
Ar  14.424310  8.699893  16.135114
Ar  14.771882  7.215587  2.800471
Ar  11.359968  8.478161  2.080718
Ar  12.124213  5.847015  5.151850
Ar  14.628761  9.433789  5.740969
Ar  13.950287  5.948423  8.165722
Ar  12.554400  9.281439  8.601998
Ar  12.322229  6.758136  11.320928
Ar  14.270973  10.426314  12.277356
Ar  13.206484  5.448233  14.575044
Ar  10.635784  8.727726  14.165765
Ar  10.998701  11.805020  0.418331
Ar  13.660774  14.643034  0.246307
Ar  13.801094  12.043220  2.499705
Ar  11.070314  14.789204  2.558812
Ar  11.255360  11.391830  4.696396
Ar  13.276252  14.362687  5.440343
Ar  14.027541  12.963240  8.955808
Ar  10.947735  14.969501  8.127548
Ar  10.519794  11.759889  10.854548
Ar  12.509846  14.593432  11.339531
Ar  12.486734  12.530314  14.543312
Ar  10.467596  15.964554  14.308360
108
Frame 7 box=17.158430
Ar  17.074135  15.970517  16.558762
Ar  1.421565  2.863974  0.118788
Ar  2.291411  0.249383  3.092073
Ar  16.841449  3.437868  3.133201
Ar  16.970291  16.792211  5.658518
Ar  2.675409  3.378473  6.167087
Ar  2.089592  0.709612  9.041843
Ar  16.864305  3.031945  8.107471
Ar  15.723030  0.429488  11.147646
Ar  2.388061  3.666457  10.942362
Ar  2.408574  0.128231  13.763524
Ar  16.533948  3.019022  13.897722
Ar  16.606675  5.988353  16.663403
Ar  3.412870  8.254612  15.724419
Ar  2.361982  6.677079  2.593251
Ar  0.322277  9.237977  0.606330
Ar  16.773037  6.286668  5.985150
Ar  2.456457  8.688025  5.658378
Ar  2.384220  6.141087  8.406641
Ar  15.874994  8.719272  8.766745
Ar  16.516875  5.831958  10.963638
Ar  2.553013  8.582284  11.247211
Ar  1.990929  5.544533  13.724509
Ar  0.195880  8.989831  13.585787
Ar  15.854536  12.167865  16.200262
Ar  2.115581  13.164855  15.518896
Ar  2.604115  10.905710  2.588127
Ar  0.058190  13.285246  2.451478
Ar  16.407467  12.286432  5.777281
Ar  2.157673  14.016947  6.463965
Ar  2.257977  10.840397  8.109145
Ar  16.335050  15.293630  8.560896
Ar  17.094691  11.461254  10.934067
Ar  2.294550  14.401204  10.481518
Ar  3.620440  11.277742  13.053123
Ar  16.152244  14.177889  13.282961
Ar  5.551405  2.421500  16.767958
Ar  9.110457  2.460922  16.665712
Ar  8.249592  0.515141  2.385231
Ar  5.007027  2.835241  2.972555
Ar  4.421939  0.221457  6.102661
Ar  7.855505  3.739594  6.127704
Ar  7.922070  0.606666  8.000471
Ar  5.536952  2.928617  9.217082
Ar  4.989079  0.124198  11.332089
Ar  8.842404  4.073145  11.149300
Ar  7.385330  0.790604  13.901839
Ar  5.252586  4.085718  13.067154
Ar  6.226059  5.874048  16.540927
Ar  7.944876  8.959821  0.045652
Ar  7.974505  5.327185  2.563131
Ar  5.862664  8.472847  3.016803
Ar  5.194179  6.427314  5.767947
Ar  8.214151  8.479455  5.903154
Ar  10.173586  6.220948  8.363748
Ar  5.530150  8.905299  8.349875
Ar  6.345213  6.206464  10.431740
Ar  8.606316  8.884989  10.111034
Ar  9.477031  5.528578  14.851804
Ar  6.112117  8.011734  13.332092
Ar  4.991382  11.674707  16.917252
Ar  7.921151  13.809325  0.013070
Ar  8.205304  11.594697  2.684850
Ar  4.853213  14.153241  2.185212
Ar  5.416040  11.392317  5.472359
Ar  7.625650  14.910809  4.870711
Ar  8.660049  11.446040  7.764316
Ar  5.768475  14.874937  8.340161
Ar  6.509990  11.601187  10.873488
Ar  7.929882  15.062144  11.925258
Ar  8.132174  12.123163  14.055561
Ar  5.504516  14.273306  14.726806
Ar  11.931452  0.570108  0.303364
Ar  15.042745  2.192048  0.193461
Ar  15.115200  0.031195  2.787597
Ar  10.725532  3.245221  3.106328
Ar  10.550945  17.128655  5.176515
Ar  14.158480  3.255175  5.285815
Ar  13.359318  0.023061  8.320917
Ar  11.179145  2.604565  7.617690
Ar  10.252782  0.468947  11.464847
Ar  13.718641  3.268854  11.104124
Ar  14.142174  0.126641  14.211026
Ar  11.136554  2.525896  13.962334
Ar  12.575272  5.081143  0.889847
Ar  13.898380  9.329206  15.806228
Ar  15.005075  7.210842  3.023308
Ar  11.351289  8.295852  2.273405
Ar  11.904735  6.000506  4.936134
Ar  14.628761  9.433789  5.740969
Ar  13.424178  5.756549  8.310036
Ar  12.126273  9.218578  8.608074
Ar  11.687580  6.554235  11.536665
Ar  13.729783  9.872186  12.016042
Ar  13.279248  5.053555  14.377624
Ar  10.176988  8.931892  14.166576
Ar  10.966845  11.386755  0.545310
Ar  13.676065  14.812827  17.056512
Ar  14.252032  10.912422  2.375709
Ar  10.832433  14.600591  2.311078
Ar  11.253701  11.376274  4.655832
Ar  13.429576  14.898613  5.008712
Ar  13.754717  12.745500  8.757667
Ar  10.583211  14.879411  8.177770
Ar  10.385829  11.927570  10.911266
Ar  12.824688  15.028520  11.562043
Ar  12.250146  12.548491  14.516361
Ar  10.170577  15.689189  14.579970
108
Frame 8 box=17.158430
Ar  17.124948  16.295752  17.079685
Ar  2.091401  3.255685  16.981034
Ar  2.249009  0.047333  3.034915
Ar  16.973540  3.034553  3.496749
Ar  17.128715  0.121917  5.752811
Ar  2.723839  3.561096  5.934127
Ar  2.356126  0.365822  8.953367
Ar  16.487244  2.657423  7.961296
Ar  16.151564  0.439530  11.093881
Ar  2.229484  3.310864  10.848974
Ar  2.962863  1.288934  13.780118
Ar  16.311606  3.186057  13.543438
Ar  16.341327  6.042901  16.543500
Ar  3.155979  8.753196  16.067094
Ar  2.091867  5.975116  3.087286
Ar  0.322277  9.237977  0.606330
Ar  16.622042  6.004660  6.194303
Ar  2.431290  8.817790  5.634796
Ar  2.898520  6.179953  8.415287
Ar  15.365383  8.681839  9.320954
Ar  16.968236  5.877552  10.697826
Ar  3.382926  7.700627  11.341511
Ar  2.258042  5.589158  13.996865
Ar  0.032939  8.590777  13.729247
Ar  15.922954  12.361721  16.354370
Ar  2.450110  13.440111  15.685177
Ar  2.336317  10.819984  3.008786
Ar  0.603713  13.740995  2.548966
Ar  16.451351  12.522560  5.569592
Ar  2.235087  14.066223  6.204661
Ar  2.331026  11.154440  8.856094
Ar  16.133288  15.283570  8.508036
Ar  0.160941  11.268922  11.478511
Ar  2.438270  14.133481  11.039998
Ar  3.499126  11.285807  12.655085
Ar  16.642191  14.672273  13.287149
Ar  5.677687  2.095549  16.682148
Ar  9.024708  2.973110  0.321405
Ar  8.218860  0.527556  2.349016
Ar  4.479285  3.161079  3.081693
Ar  4.285807  0.382147  6.034913
Ar  7.258171  3.698120  6.153685
Ar  7.914658  0.644113  8.107679
Ar  4.901565  2.788580  8.770495
Ar  4.981188  16.761720  11.019481
Ar  8.804106  3.808943  11.116292
Ar  7.323976  1.306775  13.472945
Ar  5.786802  4.286177  12.845389
Ar  6.226059  5.874048  16.540927
Ar  8.352359  8.737309  17.093610
Ar  7.974505  5.327185  2.563131
Ar  5.531699  8.073456  2.417126
Ar  5.391183  6.326693  5.730076
Ar  8.182217  8.667727  6.101942
Ar  9.806445  6.194126  8.099425
Ar  5.212689  9.181860  8.249126
Ar  6.642325  6.339253  10.094980
Ar  8.917314  9.289689  10.199386
Ar  9.557308  5.583442  15.162264
Ar  6.475791  8.501613  13.262906
Ar  5.238916  11.216355  0.207955
Ar  7.928727  14.024916  0.066984
Ar  8.251920  11.731921  2.667760
Ar  5.235282  13.968542  2.608939
Ar  5.601292  11.648216  5.737849
Ar  7.663054  14.879922  4.955841
Ar  8.508154  12.112503  7.736793
Ar  5.712138  14.442633  8.265052
Ar  6.216676  11.753701  10.462008
Ar  7.624924  14.763579  11.734779
Ar  8.553302  11.800727  13.660746
Ar  5.463762  14.949688  14.422737
Ar  11.931452  0.570108  0.303364
Ar  15.665977  2.458182  0.318794
Ar  15.186302  16.886646  2.646999
Ar  10.573885  2.905406  3.473349
Ar  10.481963  17.079880  5.387146
Ar  14.018882  2.356611  5.368744
Ar  13.140062  0.120102  8.296486
Ar  10.983414  2.765460  7.693713
Ar  10.352275  0.327379  11.025277
Ar  13.641209  3.345749  10.905217
Ar  14.252356  0.002831  14.347882
Ar  11.534072  2.611999  14.020751
Ar  12.575272  5.081143  0.889847
Ar  14.412104  9.227809  16.126475
Ar  15.182666  7.422880  2.559461
Ar  11.300433  8.083132  1.744400
Ar  11.905039  6.195102  4.464212
Ar  13.688303  9.168171  5.597041
Ar  13.569544  5.428539  8.323565
Ar  11.970722  9.433404  8.353729
Ar  11.367987  6.603879  11.323027
Ar  13.878042  10.162266  12.190213
Ar  14.530113  6.256096  13.744922
Ar  10.058834  8.810532  13.940696
Ar  10.722769  11.833591  0.125555
Ar  13.194516  14.697345  0.174348
Ar  14.079189  11.560595  2.147871
Ar  10.626359  14.929904  2.474234
Ar  11.179427  11.052956  4.072352
Ar  13.494307  15.052932  5.508044
Ar  13.677388  12.701208  8.770139
Ar  10.583211  14.879411  8.177770
Ar  10.683723  12.478074  10.770308
Ar  13.393175  15.205209  11.249306
Ar  12.778417  12.154318  14.546539
Ar  10.392481  15.900898  14.735916
108
Frame 9 box=17.158430
Ar  0.060583  16.988948  0.306025
Ar  1.889142  3.644041  0.002458
Ar  2.835591  16.738490  3.076573
Ar  0.061279  3.431020  3.591137
Ar  0.387852  0.380880  5.499601
Ar  2.742760  3.367009  6.112325
Ar  1.740106  0.182894  8.762870
Ar  16.426471  3.055774  7.937440
Ar  16.273304  0.802608  10.808434
Ar  2.320872  3.680133  11.210079
Ar  2.587079  1.531319  13.774544
Ar  16.311606  3.186057  13.543438
Ar  16.093677  6.214210  16.845109
Ar  3.815452  9.004121  15.599439
Ar  1.720399  6.489563  2.555719
Ar  0.322277  9.237977  0.606330
Ar  16.858609  6.022721  6.217277
Ar  2.311891  8.820189  5.609673
Ar  2.898520  6.179953  8.415287
Ar  16.089771  8.959306  8.504514
Ar  16.911620  6.064462  10.889970
Ar  3.236085  7.821983  11.608674
Ar  1.996814  5.389522  14.318169
Ar  17.136968  8.916077  13.914525
Ar  16.041115  12.395339  16.328101
Ar  2.292501  13.292043  15.655673
Ar  2.615418  11.190940  2.754554
Ar  0.539647  13.569116  2.131426
Ar  16.781163  11.924774  5.846304
Ar  2.713639  13.740881  5.996883
Ar  2.074690  10.606628  8.874438
Ar  16.434744  15.090986  8.445922
Ar  16.994353  11.582959  11.839009
Ar  2.206664  13.993554  10.874594
Ar  3.969292  11.321315  12.985492
Ar  16.774415  15.029458  12.908571
Ar  5.423111  1.437372  16.947571
Ar  9.069414  3.242581  0.083399
Ar  7.297774  1.108150  4.039453
Ar  4.138501  3.843150  3.065751
Ar  4.555202  0.388980  6.106259
Ar  7.496281  3.764006  6.067533
Ar  7.690917  0.390037  7.446894
Ar  5.156886  3.031604  8.999064
Ar  4.863247  0.014639  10.993764
Ar  9.268569  4.017281  10.768503
Ar  7.216349  1.128612  13.495431
Ar  5.848154  4.586890  13.532368
Ar  5.903438  5.922995  16.704796
Ar  8.229117  9.040327  0.209263
Ar  7.707228  5.361337  2.719800
Ar  5.710555  8.896256  2.564932
Ar  4.819051  6.437921  5.279625
Ar  8.182217  8.667727  6.101942
Ar  9.475494  6.227941  7.826277
Ar  5.212689  9.181860  8.249126
Ar  6.350714  6.144697  10.054005
Ar  8.792473  9.076213  10.187151
Ar  9.112318  5.375635  14.228682
Ar  6.676663  8.759563  12.890219
Ar  5.127132  11.520146  0.217946
Ar  7.427071  13.905018  0.120233
Ar  8.085235  11.344966  2.873596
Ar  5.038253  13.930780  2.758216
Ar  5.400046  11.507996  5.260784
Ar  7.831757  14.904619  4.886682
Ar  8.508154  12.112503  7.736793
Ar  5.690100  14.590132  7.918589
Ar  6.216676  11.753701  10.462008
Ar  8.369165  14.953579  11.688242
Ar  8.434752  11.909322  13.887965
Ar  5.140217  15.446195  14.652558
Ar  11.687456  0.848274  0.135524
Ar  15.213971  2.923798  0.304136
Ar  14.555679  16.829455  2.391096
Ar  10.278965  3.119087  3.865815
Ar  10.735829  16.763614  4.947184
Ar  13.788678  1.889012  5.275385
Ar  13.140062  0.120102  8.296486
Ar  10.597531  2.985001  7.462329
Ar  10.227941  0.725947  11.158873
Ar  13.422204  3.203304  10.983389
Ar  14.395174  0.270099  14.478520
Ar  11.681355  2.764938  14.188687
Ar  12.190835  4.859088  0.857522
Ar  13.635282  9.370372  15.993211
Ar  14.515519  7.391385  2.552424
Ar  11.370757  8.261885  1.345090
Ar  12.019695  5.986196  5.047370
Ar  13.756644  9.493718  5.644623
Ar  13.260046  5.416157  8.110462
Ar  11.709092  9.599463  8.321659
Ar  11.737225  6.817230  10.856150
Ar  13.759773  9.491176  11.693802
Ar  14.042322  6.315499  13.787528
Ar  9.911209  8.911193  13.715175
Ar  10.906622  11.751265  0.130788
Ar  13.315554  14.605416  0.322637
Ar  13.964174  11.072586  2.285681
Ar  10.245740  15.077232  1.888966
Ar  10.893945  11.432256  5.410599
Ar  14.046358  15.157727  5.775696
Ar  14.064948  12.327973  8.094675
Ar  11.208819  14.392347  8.443537
Ar  10.880396  12.240625  11.131297
Ar  13.225730  15.358189  11.116095
Ar  13.168787  12.929744  14.284037
Ar  10.693161  15.970223  14.451559
108
Frame 10 box=17.158430
Ar  16.948667  16.687548  0.207626
Ar  1.628369  2.933427  16.903629
Ar  2.778909  0.315064  3.238684
Ar  16.955015  3.298460  3.105988
Ar  16.996700  0.030083  5.902257
Ar  2.287186  3.188184  6.016101
Ar  2.021918  0.076936  8.729978
Ar  17.009744  2.783328  8.431403
Ar  16.200004  0.842568  11.179340
Ar  2.087498  3.330748  11.337444
Ar  3.200649  1.117816  14.155029
Ar  16.368094  3.577694  14.114878
Ar  15.695565  6.461679  16.331632
Ar  3.922845  8.845028  15.270639
Ar  1.750446  6.365871  2.468868
Ar  0.991402  8.989049  0.363823
Ar  16.678127  5.649672  5.688250
Ar  2.240111  8.799831  5.302850
Ar  2.502517  6.481709  8.244780
Ar  16.463793  8.738071  8.667441
Ar  16.643143  6.224901  10.818604
Ar  3.611195  8.523098  11.398022
Ar  2.177857  5.969138  13.585281
Ar  17.125396  9.015349  13.837499
Ar  15.941543  12.442047  16.471699
Ar  2.443533  13.166006  15.926480
Ar  3.062624  11.110730  2.716366
Ar  0.448943  13.785885  2.522786
Ar  16.781163  11.924774  5.846304
Ar  2.173157  13.955795  6.342761
Ar  2.252104  10.607710  8.610957
Ar  16.377062  14.801427  8.605171
Ar  16.238812  11.852119  11.746966
Ar  1.826524  14.339961  11.182560
Ar  2.962171  11.482137  12.692266
Ar  16.763889  14.752822  13.731800
Ar  5.049435  1.671828  0.579567
Ar  8.808362  3.353367  17.008165
Ar  7.115637  0.835314  3.770047
Ar  4.456422  4.079554  3.299871
Ar  4.651432  0.370678  6.382630
Ar  7.513813  3.709033  5.773219
Ar  8.096250  0.477030  7.973622
Ar  4.697924  3.047018  8.997448
Ar  5.460476  17.040366  10.269583
Ar  8.739774  3.343092  10.108817
Ar  7.290385  0.961926  12.798237
Ar  5.628106  4.342397  13.097390
Ar  5.037241  6.158666  0.013607
Ar  8.010887  8.489838  17.047581
Ar  7.707228  5.361337  2.719800
Ar  5.675164  8.742075  2.655486
Ar  5.109443  6.726562  5.554439
Ar  8.486278  9.230689  5.630451
Ar  9.598243  6.305676  7.946213
Ar  5.579637  9.030505  8.012428
Ar  6.575178  6.216086  9.730001
Ar  8.573878  9.123489  10.140352
Ar  9.003131  5.086043  13.730894
Ar  6.601619  8.711155  13.202377
Ar  5.476866  11.612105  0.202478
Ar  7.666279  14.448563  16.958805
Ar  8.219530  11.335929  2.832209
Ar  4.575915  14.086135  2.257782
Ar  5.363765  11.662960  5.832704
Ar  7.449675  14.521328  4.833367
Ar  8.746080  12.031897  7.854648
Ar  5.729293  14.369091  7.987088
Ar  5.922397  11.712464  10.430983
Ar  8.424134  14.421720  10.898749
Ar  7.979484  11.693412  14.815796
Ar  5.231590  15.040695  13.939164
Ar  11.602897  1.165054  17.132581
Ar  14.897475  2.684929  0.146446
Ar  14.555568  0.054533  2.833418
Ar  10.646069  2.926722  3.362289
Ar  11.039474  16.065805  5.242818
Ar  14.221968  2.482951  5.169746
Ar  14.200263  0.338258  8.317890
Ar  11.166974  2.736275  7.746019
Ar  10.938960  0.552960  10.983412
Ar  13.697588  3.359951  10.838205
Ar  14.704278  0.205954  14.484014
Ar  11.985146  3.098697  14.306281
Ar  12.122611  5.219374  0.446104
Ar  13.503099  9.234426  15.675345
Ar  15.139272  7.329198  2.742911
Ar  11.221418  8.294059  1.524017
Ar  11.844143  6.138580  4.576061
Ar  13.898332  9.409293  5.820184
Ar  13.673540  5.620002  7.515233
Ar  11.777407  9.216272  8.801106
Ar  11.234822  6.132938  11.211483
Ar  13.594126  9.674950  12.140863
Ar  14.035797  6.287594  13.111447
Ar  10.216596  8.832482  13.497230
Ar  11.057862  11.393876  16.749835
Ar  13.739747  14.715922  0.201288
Ar  14.399654  11.112135  2.153816
Ar  10.172249  14.987679  2.061060
Ar  11.038227  11.809314  5.402760
Ar  14.315830  14.922694  5.462634
Ar  13.936769  12.515464  7.921090
Ar  11.151952  14.664218  8.466712
Ar  10.995113  12.401655  11.447167
Ar  13.253040  15.255973  11.841091
Ar  13.168787  12.929744  14.284037
Ar  9.943326  14.948769  14.401480
108
Frame 11 box=17.158430
Ar  0.249629  0.026318  16.465899
Ar  1.464370  3.384091  0.016405
Ar  2.871110  0.246629  3.455453
Ar  0.156738  3.156729  3.068442
Ar  0.051438  0.218682  5.459885
Ar  2.524407  3.395003  5.755220
Ar  2.356132  0.290364  8.275834
Ar  17.009744  2.783328  8.431403
Ar  16.966597  0.177285  10.727486
Ar  2.058173  3.295686  11.455375
Ar  2.697414  0.143814  13.204311
Ar  16.440702  3.958944  13.856339
Ar  16.378157  6.065995  16.503060
Ar  4.071832  8.980600  15.735239
Ar  2.054729  6.603095  2.628672
Ar  0.991402  8.989049  0.363823
Ar  17.012146  6.094778  5.470489
Ar  2.070121  9.042572  5.704064
Ar  2.322579  6.436897  8.433742
Ar  16.774125  9.052155  8.631241
Ar  16.167452  6.072837  10.585489
Ar  3.550351  8.644527  11.442493
Ar  2.308561  6.263115  14.306674
Ar  17.117378  9.592735  13.804982
Ar  16.309105  11.862381  17.038612
Ar  2.306111  12.983869  16.301353
Ar  2.420019  11.544288  2.737378
Ar  0.229850  14.425905  3.434181
Ar  16.933463  11.481285  5.500308
Ar  2.907131  14.836208  6.055726
Ar  2.238496  11.582208  8.518213
Ar  16.821502  14.988881  8.085017
Ar  16.868930  11.634234  10.936189
Ar  1.826524  14.339961  11.182560
Ar  3.475468  11.743608  13.101059
Ar  16.588001  14.559993  14.036378
Ar  5.124170  1.545203  0.170931
Ar  8.926311  3.722581  0.136142
Ar  7.188168  0.406894  3.630190
Ar  4.368832  3.760778  2.754379
Ar  5.241070  0.260601  6.457048
Ar  7.910065  3.078966  6.194196
Ar  8.619032  0.138980  8.460591
Ar  5.055693  2.929206  9.275183
Ar  4.925867  16.929920  10.396344
Ar  8.709954  3.463697  10.386359
Ar  7.289008  1.310046  12.656381
Ar  5.544375  4.558114  12.850333
Ar  4.633115  5.964938  0.144079
Ar  8.639397  8.344200  16.494293
Ar  8.281318  6.244257  2.578991
Ar  5.603447  9.135880  2.339014
Ar  5.361779  6.738903  5.441036
Ar  8.208162  9.017225  5.037772
Ar  8.779843  6.578361  7.242379
Ar  5.559408  9.187613  8.197459
Ar  6.694013  6.563861  10.206431
Ar  9.003327  9.272391  10.460057
Ar  9.019013  5.004896  13.725441
Ar  6.880662  8.719536  13.408185
Ar  5.861507  11.447205  17.079718
Ar  7.438630  14.871512  16.759482
Ar  8.206517  11.703445  2.353958
Ar  4.135034  15.107575  1.374910
Ar  5.069284  11.894153  5.623999
Ar  7.909789  14.348993  5.034773
Ar  8.753485  12.084211  7.763350
Ar  5.581401  14.398287  7.969299
Ar  6.609988  11.658841  10.566183
Ar  8.533973  14.691030  10.967739
Ar  7.979823  12.178580  13.932608
Ar  5.789872  15.082143  13.412717
Ar  11.717646  1.006948  0.229582
Ar  14.966771  3.070934  0.371986
Ar  14.591960  0.176798  2.129255
Ar  11.142218  2.727014  3.663029
Ar  10.903842  16.439364  4.844444
Ar  14.214325  2.582441  5.174729
Ar  13.910277  0.284143  8.031300
Ar  11.200859  2.816157  7.653648
Ar  11.164331  0.742817  11.240118
Ar  14.105991  3.024718  10.918619
Ar  14.253951  0.422725  14.193757
Ar  12.230942  3.116157  14.466063
Ar  11.817805  5.698421  0.122958
Ar  13.665151  9.053655  15.752330
Ar  15.139272  7.329198  2.742911
Ar  11.410740  8.977184  2.386093
Ar  12.220682  5.831943  4.509859
Ar  14.199765  9.006099  5.931650
Ar  13.814042  5.446754  7.670231
Ar  11.815900  9.156406  8.542635
Ar  10.966449  6.677356  10.685560
Ar  13.911586  9.684840  11.571558
Ar  13.811418  6.130836  13.267457
Ar  10.780942  9.067338  13.653157
Ar  11.090536  11.485221  17.065517
Ar  13.633027  14.283568  0.398944
Ar  14.190344  11.667189  2.999855
Ar  10.420798  14.576439  1.974712
Ar  11.366546  12.322889  5.413422
Ar  14.182033  14.616297  5.072661
Ar  14.511443  12.211951  8.091485
Ar  11.278423  14.870220  8.514337
Ar  11.269003  12.047784  10.714764
Ar  13.916009  15.180000  11.919688
Ar  13.541257  12.133366  14.115014
Ar  10.522389  14.569966  14.270168
108
Frame 12 box=17.158430
Ar  1.216169  16.879358  0.456069
Ar  1.767900  3.801767  16.747682
Ar  3.195628  0.708199  3.476282
Ar  0.156738  3.156729  3.068442
Ar  0.038023  0.259812  4.875163
Ar  2.512916  3.147548  5.840579
Ar  2.198609  0.518094  8.385262
Ar  16.813534  2.899075  8.217863
Ar  16.325159  0.290668  11.380497
Ar  1.966219  3.125390  11.104288
Ar  2.646129  0.435254  13.746866
Ar  0.052706  2.651464  14.036161
Ar  16.382165  5.937422  16.761477
Ar  3.466470  8.912803  15.519798
Ar  2.153808  6.322619  2.785025
Ar  0.798684  8.716498  0.643278
Ar  16.947778  5.978069  5.684316
Ar  2.165263  9.110874  6.028676
Ar  2.186849  5.979573  8.176466
Ar  16.603990  8.788226  8.284457
Ar  16.681127  5.838101  10.446255
Ar  2.395318  8.804841  10.847348
Ar  1.886351  5.827734  13.566479
Ar  17.000448  8.730083  13.178032
Ar  16.187658  11.991319  0.308344
Ar  2.902538  12.618104  16.296148
Ar  2.485450  11.684892  2.968809
Ar  0.015664  14.453833  3.097390
Ar  16.882890  11.720245  5.496545
Ar  2.672571  14.510758  5.780801
Ar  2.513802  11.651006  8.371745
Ar  0.089797  14.758107  7.897148
Ar  16.419142  12.124005  11.460927
Ar  1.826524  14.339961  11.182560
Ar  3.087878  11.598313  12.779112
Ar  16.705220  14.734646  14.202814
Ar  4.907356  0.650319  16.580114
Ar  8.703381  3.190999  16.632248
Ar  7.634074  0.772807  2.998815
Ar  4.969463  3.853599  2.903107
Ar  4.999547  17.075191  6.656495
Ar  6.903506  3.471412  6.001906
Ar  7.835909  0.248520  8.662119
Ar  5.289983  3.326519  8.814440
Ar  4.925867  16.929920  10.396344
Ar  8.870677  3.602115  10.435103
Ar  7.591461  1.117729  12.585526
Ar  5.522046  4.488326  12.995722
Ar  5.083471  5.794334  16.361665
Ar  8.639397  8.344200  16.494293
Ar  7.828083  6.026092  3.031289
Ar  4.890042  8.686933  2.753782
Ar  5.179693  6.924335  5.965544
Ar  8.240568  9.446287  5.136636
Ar  9.457925  6.165451  7.233602
Ar  5.186626  9.009254  8.645141
Ar  6.669549  6.435498  10.417143
Ar  9.057513  9.429865  10.337779
Ar  9.146408  5.789762  13.677551
Ar  6.510378  8.169857  13.487006
Ar  5.967227  11.416508  0.038888
Ar  7.111058  14.744232  16.877829
Ar  8.519354  10.925703  2.215371
Ar  3.890138  15.041406  1.387756
Ar  5.107388  11.206227  5.702225
Ar  6.967271  14.591670  5.183068
Ar  8.229995  12.254708  7.604233
Ar  4.967737  14.043311  8.571848
Ar  6.137878  11.668444  10.977062
Ar  8.533973  14.691030  10.967739
Ar  8.160447  12.058833  14.082102
Ar  5.365853  14.650521  13.585061
Ar  11.366740  0.298847  0.817417
Ar  15.467037  2.509047  0.147183
Ar  14.850710  0.073430  2.263655
Ar  11.052265  3.221450  3.922696
Ar  10.882720  16.160634  5.419512
Ar  14.369290  2.342687  4.964473
Ar  14.124457  0.518437  8.203308
Ar  11.524612  2.632731  7.215307
Ar  11.053290  0.934604  11.702163
Ar  14.225988  2.990349  11.351076
Ar  13.974921  16.803305  14.336222
Ar  12.045778  3.554061  14.216316
Ar  11.650419  6.206489  16.590561
Ar  14.167036  9.346411  15.905084
Ar  14.955252  7.401899  2.758873
Ar  11.307617  8.792392  2.725114
Ar  12.554927  6.250516  5.106679
Ar  14.199765  9.006099  5.931650
Ar  13.973446  5.336588  8.137900
Ar  11.757577  9.204373  8.327793
Ar  11.270159  6.209174  11.034510
Ar  13.811435  9.455330  11.082680
Ar  14.030767  6.473746  13.219360
Ar  11.048393  9.332231  13.832639
Ar  10.972737  11.744968  16.850219
Ar  13.633027  14.283568  0.398944
Ar  14.207007  11.147303  2.830961
Ar  10.072584  14.407154  1.909859
Ar  11.471984  11.890245  5.705481
Ar  14.086165  14.483263  4.488222
Ar  14.511443  12.211951  8.091485
Ar  11.641868  14.452531  8.406872
Ar  11.358175  12.326914  11.153294
Ar  13.488916  15.181779  11.337907
Ar  13.543221  12.909465  14.246560
Ar  10.015157  15.271956  14.631667
108
Frame 13 box=17.158430
Ar  1.316069  16.854631  0.245748
Ar  1.816580  3.381797  16.599849
Ar  3.100311  0.816211  3.036419
Ar  0.449169  3.423051  3.014859
Ar  0.340767  0.251875  5.111070
Ar  2.997817  3.392242  5.543870
Ar  1.952214  0.615219  8.251122
Ar  16.438403  2.851893  8.294479
Ar  16.707468  0.257695  11.444553
Ar  1.880672  2.963951  10.783075
Ar  2.283637  0.002978  13.789003
Ar  16.481294  3.215190  14.170647
Ar  16.427530  6.286201  16.319745
Ar  3.353856  8.808591  15.661608
Ar  2.353174  6.613154  3.264880
Ar  0.681799  8.945530  1.161560
Ar  16.559336  6.019770  5.398138
Ar  2.140252  8.899036  5.998225
Ar  2.380546  5.838763  8.301545
Ar  16.373445  8.922990  8.386485
Ar  16.681127  5.838101  10.446255
Ar  2.523882  8.675096  10.492243
Ar  2.026092  5.791421  13.241185
Ar  0.068794  9.217746  13.485060
Ar  15.941277  11.948451  16.978469
Ar  2.260990  11.831523  16.296962
Ar  2.485450  11.684892  2.968809
Ar  16.972435  14.015645  2.519160
Ar  16.882890  11.720245  5.496545
Ar  2.858182  14.614254  5.537561
Ar  1.801224  11.607938  8.372645
Ar  16.693866  14.632195  7.936563
Ar  16.112650  12.516709  11.484744
Ar  2.194079  14.741878  11.194694
Ar  3.087878  11.598313  12.779112
Ar  17.152789  14.563285  14.321001
Ar  5.172619  1.054316  16.541052
Ar  8.892117  3.035580  0.018554
Ar  6.742838  0.327766  3.044801
Ar  4.850800  3.809765  2.339936
Ar  5.236802  0.163012  6.425927
Ar  7.101353  3.260433  5.961627
Ar  8.221788  0.250791  8.333629
Ar  4.805218  2.957701  8.496389
Ar  4.816988  16.742282  10.526074
Ar  8.745794  3.478633  10.495100
Ar  7.484793  0.734976  13.202781
Ar  5.397407  3.875994  12.203833
Ar  5.712363  5.378105  15.899390
Ar  8.442730  8.370538  16.968845
Ar  7.837691  6.211187  3.399074
Ar  5.011929  8.377659  3.091696
Ar  5.312050  6.578214  6.083989
Ar  8.670410  9.004716  5.334342
Ar  9.457925  6.165451  7.233602
Ar  5.386862  9.364067  8.343761
Ar  6.637403  6.112123  9.774691
Ar  8.706693  9.331347  10.605763
Ar  9.011473  5.530939  13.933688
Ar  6.254021  8.022753  13.379944
Ar  5.439811  11.268265  0.372629
Ar  7.335111  15.053216  16.582071
Ar  8.519354  10.925703  2.215371
Ar  4.108640  14.647831  2.045348
Ar  5.126315  11.524041  5.165283
Ar  7.225194  14.464483  4.695233
Ar  8.287227  11.693779  7.703213
Ar  4.705033  13.725138  8.361820
Ar  6.147678  12.017787  11.123819
Ar  8.092578  14.728275  10.751942
Ar  7.680604  11.362990  14.314886
Ar  5.034232  15.004360  13.745156
Ar  11.351692  0.320026  16.701237
Ar  14.764094  3.223412  0.332781
Ar  14.850710  0.073430  2.263655
Ar  11.053494  3.583425  3.358191
Ar  11.357062  0.015419  4.828910
Ar  14.257573  2.605267  5.014043
Ar  14.417320  0.325851  8.242473
Ar  11.086852  2.622835  7.593083
Ar  10.912412  0.829851  11.530849
Ar  13.980324  3.168472  10.718962
Ar  14.144575  16.840679  14.234999
Ar  12.241713  3.961442  13.976423
Ar  11.791990  6.815946  16.593281
Ar  13.896574  9.393302  15.575707
Ar  14.621776  6.762735  2.070542
Ar  11.337534  8.357602  2.510975
Ar  12.554927  6.250516  5.106679
Ar  14.010193  9.348415  5.567294
Ar  13.801782  5.424050  8.100976
Ar  11.253754  9.167523  8.238293
Ar  11.110050  5.910688  10.801637
Ar  13.837220  9.221760  11.246826
Ar  14.868312  6.224964  13.252047
Ar  10.694228  9.435937  13.834999
Ar  11.056927  11.892738  16.683981
Ar  13.589860  14.508038  0.499172
Ar  14.219108  11.552471  2.894340
Ar  9.952038  14.266673  2.329491
Ar  11.471984  11.890245  5.705481
Ar  14.254750  14.679885  5.232509
Ar  14.100135  11.654996  8.615554
Ar  11.641868  14.452531  8.406872
Ar  11.225732  11.957109  11.004771
Ar  13.883068  15.102770  11.223999
Ar  13.138329  12.954998  14.047765
Ar  9.789125  14.498103  14.067783
108
Frame 14 box=17.158430
Ar  0.329008  17.152792  0.105891
Ar  2.493918  3.156212  16.240226
Ar  2.891002  0.594902  2.656516
Ar  0.544774  2.997533  3.013990
Ar  0.109252  0.405946  5.269615
Ar  2.516589  3.288375  5.775212
Ar  1.952214  0.615219  8.251122
Ar  16.556587  3.109017  7.822017
Ar  16.707468  0.257695  11.444553
Ar  1.863339  2.789382  10.999129
Ar  2.255794  0.307457  14.159165
Ar  16.234639  2.761965  14.037732
Ar  16.776823  5.629326  16.112592
Ar  3.771030  8.458145  16.144390
Ar  2.374520  6.188660  3.276225
Ar  0.580058  8.520364  0.933739
Ar  16.412177  5.564321  5.462917
Ar  1.894718  8.803032  5.910851
Ar  2.661006  5.472025  8.693690
Ar  16.146553  8.805019  8.128102
Ar  16.597488  5.862084  10.296422
Ar  2.049013  8.706352  10.170794
Ar  1.919480  6.007414  13.267301
Ar  0.077951  9.041443  13.408610
Ar  16.011565  11.914240  17.079518
Ar  2.260990  11.831523  16.296962
Ar  2.755050  10.946927  2.861880
Ar  16.972435  14.015645  2.519160
Ar  0.277376  11.931471  5.188650
Ar  2.833314  14.496615  4.822063
Ar  1.801224  11.607938  8.372645
Ar  16.780573  15.130631  8.456474
Ar  17.137628  12.203943  11.633532
Ar  2.441287  15.029832  11.472315
Ar  3.087878  11.598313  12.779112
Ar  17.091879  14.539083  14.353309
Ar  5.822636  1.189908  16.603217
Ar  9.125544  3.810541  16.770143
Ar  7.396580  17.026911  2.871044
Ar  5.052296  4.171409  2.328930
Ar  5.023960  16.852416  6.285743
Ar  7.349097  3.201591  5.758932
Ar  8.226660  0.522131  8.627697
Ar  4.878464  3.049747  8.423187
Ar  5.094457  16.888042  10.139151
Ar  8.745794  3.478633  10.495100
Ar  7.037584  0.897600  12.854279
Ar  5.389235  3.637402  12.093946
Ar  5.745796  5.570671  16.138958
Ar  7.955145  8.412921  17.146148
Ar  8.295453  5.375539  2.939320
Ar  5.467750  8.460613  3.249660
Ar  5.330263  6.626805  6.336748
Ar  8.643421  8.341644  4.512829
Ar  9.058539  6.258688  7.433222
Ar  5.037888  9.471646  8.514348
Ar  6.369235  6.284704  10.134522
Ar  8.491434  9.119174  10.243036
Ar  9.062297  5.443376  13.806294
Ar  5.154873  8.594684  12.783815
Ar  5.559861  11.553164  0.409040
Ar  7.231240  15.147006  16.879812
Ar  8.519354  10.925703  2.215371
Ar  4.449113  14.498042  1.784761
Ar  5.085335  11.629711  5.225162
Ar  8.074868  14.873902  6.043625
Ar  8.287227  11.693779  7.703213
Ar  4.778433  13.918995  8.067617
Ar  6.147678  12.017787  11.123819
Ar  8.317988  15.339164  11.117261
Ar  8.220423  11.338435  14.700210
Ar  5.264364  14.873037  14.040387
Ar  11.287186  0.240048  0.727758
Ar  14.056418  3.036042  0.485668
Ar  14.879084  16.993151  2.622186
Ar  10.980367  2.799782  3.278443
Ar  10.956577  16.941562  5.065516
Ar  14.175761  2.911703  5.222814
Ar  13.429787  0.877232  8.302037
Ar  10.942619  3.045949  7.393227
Ar  10.917476  0.897039  11.996535
Ar  13.980324  3.168472  10.718962
Ar  14.026909  17.037619  14.517134
Ar  12.202494  3.822076  13.896993
Ar  11.968338  6.933601  16.751719
Ar  14.501837  9.302013  15.421236
Ar  14.739800  6.438282  2.269950
Ar  11.659742  8.472321  2.928679
Ar  11.693631  5.551607  4.837194
Ar  14.405904  8.639832  5.104817
Ar  13.589946  5.828008  7.897432
Ar  12.030310  9.192628  8.100286
Ar  11.012692  6.320391  10.713074
Ar  14.106856  9.029126  11.483604
Ar  14.604655  6.098433  13.300186
Ar  10.175152  8.844849  13.658800
Ar  11.262673  11.068709  16.957733
Ar  13.301194  14.131977  0.228984
Ar  13.773733  11.411313  2.650671
Ar  10.497053  14.270689  2.464091
Ar  10.882378  11.685968  5.313386
Ar  14.287883  14.872246  5.169256
Ar  14.542604  11.868004  7.546837
Ar  11.947683  14.432192  8.165406
Ar  10.836952  11.915426  10.494329
Ar  13.883068  15.102770  11.223999
Ar  13.463902  12.544398  14.241521
Ar  10.086516  14.464030  14.525615
108
Frame 15 box=17.158430
Ar  0.539197  16.623853  0.118084
Ar  2.421449  3.373238  16.448827
Ar  2.975217  0.555887  2.104323
Ar  0.564460  2.906000  2.120630
Ar  0.186582  0.647326  5.268261
Ar  2.441105  3.204471  5.522126
Ar  2.042273  0.849568  8.245107
Ar  16.556587  3.109017  7.822017
Ar  16.441088  0.227052  11.332963
Ar  2.235959  3.081489  10.970990
Ar  2.372964  0.280460  13.258582
Ar  16.138608  2.333410  14.396838
Ar  16.468756  5.781807  16.502390
Ar  2.947303  8.519606  15.852392
Ar  2.229116  6.161646  3.571009
Ar  16.924959  8.638499  1.349944
Ar  16.354655  6.102988  5.970696
Ar  1.650303  8.644367  5.944701
Ar  2.501505  5.820565  8.306402
Ar  16.146553  8.805019  8.128102
Ar  16.570457  6.136043  10.190216
Ar  2.362856  8.668656  10.743734
Ar  2.166916  5.874406  13.478786
Ar  0.461225  9.369836  13.479183
Ar  16.011565  11.914240  17.079518
Ar  2.290261  12.189952  16.753686
Ar  2.316629  10.621215  3.081104
Ar  16.972435  14.015645  2.519160
Ar  0.032515  12.386954  5.502792
Ar  2.836045  14.823109  5.026636
Ar  2.673615  11.687797  8.350951
Ar  16.579419  15.067358  8.270343
Ar  15.881722  11.893596  10.842120
Ar  2.961058  14.273417  10.965234
Ar  3.775202  11.556028  13.142159
Ar  0.136608  14.414064  14.373244
Ar  5.997640  1.406670  16.809250
Ar  8.831352  3.208791  16.924570
Ar  7.377001  17.146502  3.209323
Ar  4.664210  3.519731  2.696982
Ar  4.920971  0.334706  5.785896
Ar  7.635938  2.743822  5.857465
Ar  8.824304  0.516607  8.448610
Ar  4.878464  3.049747  8.423187
Ar  5.300744  16.953120  10.105443
Ar  8.677704  3.791083  10.547871
Ar  7.748457  0.685066  13.800707
Ar  5.316411  3.114186  12.203977
Ar  5.793591  5.460636  16.064297
Ar  8.159801  7.962634  16.445942
Ar  8.120989  5.527242  2.402039
Ar  5.437977  7.996099  3.225980
Ar  5.265057  5.658410  6.079462
Ar  8.551343  8.851177  4.865978
Ar  8.687456  5.868303  7.159704
Ar  5.063785  9.151296  7.780665
Ar  6.330564  6.405912  10.021274
Ar  8.784033  8.845671  10.325142
Ar  9.347607  5.330133  14.090043
Ar  5.801496  8.709806  13.236467
Ar  5.680874  10.565070  0.315652
Ar  7.170818  15.350998  16.917062
Ar  8.967823  10.561546  1.913137
Ar  4.623531  13.887987  2.266704
Ar  5.627417  11.539594  5.034869
Ar  7.751767  14.708966  5.550268
Ar  8.542306  11.653077  7.374598
Ar  5.468932  13.779759  8.192851
Ar  6.678085  12.258402  11.111611
Ar  8.738757  15.184156  10.901251
Ar  7.842629  11.501451  14.709746
Ar  5.979109  14.708983  13.625449
Ar  11.028419  0.120958  0.566777
Ar  13.290880  3.116210  0.197920
Ar  14.134641  0.471717  2.260498
Ar  10.125795  2.591309  2.991870
Ar  10.670657  16.986942  5.197044
Ar  14.454480  3.084685  4.529034
Ar  13.078616  0.560151  8.438283
Ar  10.942619  3.045949  7.393227
Ar  11.018721  0.833467  11.875430
Ar  13.855384  3.647667  10.754108
Ar  13.596375  16.624399  15.034133
Ar  12.381405  3.599194  14.032078
Ar  11.980651  6.871817  16.380908
Ar  14.501837  9.302013  15.421236
Ar  14.739800  6.438282  2.269950
Ar  11.659742  8.472321  2.928679
Ar  11.851826  5.375041  4.828522
Ar  14.886531  9.254427  4.497776
Ar  13.561653  5.937945  8.197044
Ar  12.112916  9.043487  8.240711
Ar  11.217591  6.269085  10.839413
Ar  13.655258  9.064162  11.319057
Ar  14.604655  6.098433  13.300186
Ar  10.505351  8.798376  13.185072
Ar  11.577748  10.855201  16.827126
Ar  13.020576  14.374186  0.720983
Ar  13.734296  11.518504  2.495845
Ar  9.557670  14.212144  2.534635
Ar  10.872900  12.299903  5.031509
Ar  14.161122  14.904841  4.874249
Ar  14.352897  11.891184  7.430401
Ar  11.091029  14.289576  7.823619
Ar  11.288523  11.638759  10.714579
Ar  13.147491  14.881679  10.985054
Ar  13.794698  12.868999  14.146925
Ar  10.011285  14.183600  14.205284
108
Frame 16 box=17.158430
Ar  0.595476  16.756097  16.625215
Ar  2.006298  3.238011  16.264587
Ar  2.217831  1.034962  2.433542
Ar  16.522744  3.183191  1.833096
Ar  16.761381  0.164079  5.293101
Ar  2.186150  3.394143  5.445094
Ar  2.162269  0.313862  8.554639
Ar  16.475805  2.508248  8.234307
Ar  16.745184  16.735823  11.201146
Ar  1.867540  3.028605  11.079974
Ar  2.678512  0.426555  13.733669
Ar  16.422137  2.573038  13.606779
Ar  16.468756  5.781807  16.502390
Ar  2.766312  7.831951  16.264372
Ar  1.894114  6.156728  3.103787
Ar  16.701247  8.833368  1.598647
Ar  16.401639  5.941832  6.370019
Ar  2.174268  8.735375  5.817353
Ar  2.173736  6.226357  8.446643
Ar  16.725602  9.317665  8.183020
Ar  16.461554  5.996574  10.137589
Ar  1.940760  8.849690  10.867305
Ar  2.185419  5.957978  13.242757
Ar  0.135884  9.482860  13.872483
Ar  15.870419  11.972730  16.850878
Ar  2.290261  12.189952  16.753686
Ar  2.153846  10.921267  2.706831
Ar  16.591542  14.823640  2.430142
Ar  0.421958  12.612457  5.375070
Ar  2.401131  15.210902  4.884185
Ar  2.261962  11.909902  8.606269
Ar  16.395118  15.211799  8.106951
Ar  15.610833  12.270305  10.956830
Ar  2.186719  14.690874  10.547895
Ar  3.905386  11.042321  13.466786
Ar  17.060755  14.460312  14.113891
Ar  4.855718  1.107982  16.887599
Ar  9.190122  3.144157  16.910290
Ar  7.791684  0.370254  3.097067
Ar  4.664210  3.519731  2.696982
Ar  4.550252  0.595416  5.344466
Ar  7.374567  2.564522  5.874926
Ar  8.824304  0.516607  8.448610
Ar  4.878464  3.049747  8.423187
Ar  5.382183  16.990567  10.310340
Ar  9.072865  3.489042  11.164175
Ar  7.705077  0.919167  14.319901
Ar  5.643322  3.598899  12.318632
Ar  5.456902  5.063464  16.025030
Ar  7.594940  7.911741  16.965915
Ar  8.134669  6.006382  2.817161
Ar  5.220241  8.183532  3.212402
Ar  5.050386  5.355065  5.917165
Ar  8.782030  8.914780  4.984664
Ar  8.598402  5.790019  7.341884
Ar  4.980803  9.457137  8.618141
Ar  5.942682  6.391770  9.750356
Ar  8.595844  8.995366  10.272831
Ar  9.263391  5.454678  14.160995
Ar  6.336325  8.529350  13.513172
Ar  5.361470  11.028629  0.654087
Ar  7.360849  15.190045  17.032310
Ar  8.663447  10.516524  1.732057
Ar  4.441606  14.219967  1.820642
Ar  5.381124  11.591589  5.305552
Ar  8.015684  14.455484  5.713152
Ar  8.826599  11.737112  7.690705
Ar  5.075352  14.375451  7.650747
Ar  7.025425  11.763413  11.074553
Ar  8.273475  14.983109  10.695847
Ar  7.819740  11.482702  15.474170
Ar  5.764821  14.795270  13.288008
Ar  11.093788  0.187866  0.651907
Ar  12.865971  3.616971  0.823360
Ar  14.020802  0.502172  2.572757
Ar  10.413183  3.064347  3.311283
Ar  10.986496  0.288590  5.440314
Ar  14.506457  3.264865  4.955965
Ar  13.704813  0.375400  8.068015
Ar  10.942619  3.045949  7.393227
Ar  10.997641  0.592953  11.715861
Ar  13.766773  2.951298  10.444780
Ar  13.995312  0.102711  14.967164
Ar  12.545288  3.303465  13.825447
Ar  11.764461  7.082451  16.944013
Ar  14.501837  9.302013  15.421236
Ar  14.798989  6.171399  2.696139
Ar  11.619463  8.793267  2.761376
Ar  11.867627  6.084154  4.612989
Ar  14.925621  9.204579  5.075536
Ar  13.426225  6.040788  8.223573
Ar  11.938854  9.637063  7.687183
Ar  11.070779  6.151084  11.091093
Ar  13.578807  9.401576  11.678800
Ar  14.579183  6.199869  13.539738
Ar  10.549010  9.459754  13.743901
Ar  11.440478  10.923804  16.877685
Ar  13.550491  14.694662  0.452527
Ar  13.805998  11.310737  2.549656
Ar  9.773820  14.227443  2.189893
Ar  11.461288  12.349233  5.501728
Ar  13.845415  15.208324  5.064684
Ar  14.210240  12.332329  7.733866
Ar  11.228806  14.758216  8.000001
Ar  11.127195  11.903237  10.124453
Ar  13.263170  14.923666  10.670523
Ar  13.862639  12.270741  14.093586
Ar  10.270897  14.398841  14.677201
108
Frame 17 box=17.158430
Ar  0.436344  16.567075  16.505024
Ar  2.192314  3.062874  15.354330
Ar  1.934575  1.155476  2.639837
Ar  16.717882  3.394616  1.603347
Ar  16.194256  0.350192  5.248824
Ar  2.132809  3.339690  5.447109
Ar  2.276544  0.135928  8.354292
Ar  16.475805  2.508248  8.234307
Ar  16.573194  0.162247  11.236368
Ar  2.148971  2.943904  10.822385
Ar  3.296313  0.222847  13.493826
Ar  16.231015  2.976129  13.802410
Ar  16.837779  6.247507  16.190174
Ar  3.037670  8.197933  16.094824
Ar  2.200735  6.017332  1.799521
Ar  16.836044  9.010582  1.422909
Ar  16.651459  6.357714  6.553916
Ar  2.493124  8.657230  5.766840
Ar  2.536223  5.848980  8.046203
Ar  16.716020  9.785357  8.287716
Ar  16.461554  5.996574  10.137589
Ar  2.461910  8.908508  10.426554
Ar  2.267628  6.154381  12.960183
Ar  0.184044  9.442368  13.338702
Ar  15.948468  11.725301  17.041047
Ar  2.244463  12.658962  16.847159
Ar  2.097164  10.753686  2.996059
Ar  16.995281  14.407956  2.239593
Ar  0.159919  12.004657  5.469094
Ar  2.233875  15.388626  5.127845
Ar  2.580428  12.105714  7.895876
Ar  16.496840  15.157840  8.489805
Ar  15.411608  12.189127  11.136255
Ar  2.686282  14.701494  10.923407
Ar  3.477684  10.581787  13.580044
Ar  0.487524  14.557132  13.783683
Ar  4.372686  0.033451  0.197681
Ar  8.854026  3.833685  0.335616
Ar  7.645178  16.935822  3.154763
Ar  4.764026  3.538201  2.557892
Ar  4.980209  0.303577  5.503305
Ar  7.614210  2.826713  5.673786
Ar  8.917282  0.189331  8.250349
Ar  4.489319  2.661453  8.256154
Ar  5.778947  0.459266  10.810534
Ar  7.934685  3.097916  9.913778
Ar  8.419433  0.660481  13.996967
Ar  5.519053  3.995072  12.707528
Ar  5.666066  5.284247  16.644665
Ar  8.102791  8.034132  16.723122
Ar  7.777786  5.974354  2.515341
Ar  5.489661  8.409149  3.210874
Ar  5.334312  5.467112  5.715246
Ar  7.954996  8.940859  5.789491
Ar  8.648819  5.867285  7.403051
Ar  5.611650  10.044427  8.136417
Ar  5.784255  5.939595  9.823859
Ar  8.391876  8.941210  9.608620
Ar  8.593635  5.882517  14.092453
Ar  6.502132  8.767076  12.981396
Ar  5.127656  10.857418  0.145733
Ar  7.254619  14.890337  16.820446
Ar  8.512247  11.080186  2.631469
Ar  4.725984  14.594422  2.296904
Ar  5.030371  11.644374  4.960651
Ar  7.931564  14.200413  5.041587
Ar  8.495213  12.028623  7.489132
Ar  5.211413  14.394686  7.418399
Ar  7.722799  11.690048  11.456280
Ar  9.200586  15.108415  10.697921
Ar  8.261707  11.486205  15.609755
Ar  6.259101  14.663585  12.805223
Ar  10.763480  0.346129  0.683977
Ar  12.770864  3.297776  0.663645
Ar  13.901851  0.794499  2.529701
Ar  10.441062  3.349409  3.758141
Ar  10.717984  16.738413  5.306037
Ar  14.628003  3.401699  4.980408
Ar  13.395942  0.126406  8.039327
Ar  10.625903  2.972367  7.497277
Ar  11.276492  0.666411  11.407734
Ar  13.574462  3.464221  9.956872
Ar  13.842119  16.856497  14.412250
Ar  12.728040  3.025210  14.384627
Ar  11.476160  7.091662  16.325414
Ar  14.367751  9.285232  15.355216
Ar  14.877380  6.322616  2.716340
Ar  11.354401  9.188355  3.578612
Ar  11.511365  6.217431  5.240013
Ar  15.420831  9.062562  4.896570
Ar  13.319153  6.669388  8.235412
Ar  12.095713  9.700590  7.427213
Ar  11.082119  6.277643  11.406819
Ar  13.569081  9.132670  10.986358
Ar  14.579183  6.199869  13.539738
Ar  10.717638  9.793538  13.097635
Ar  11.440478  10.923804  16.877685
Ar  13.697602  14.899255  0.275684
Ar  14.134911  11.643901  2.904624
Ar  10.056697  14.308657  2.294579
Ar  10.868996  12.214868  5.012956
Ar  13.753901  15.246295  5.027611
Ar  14.318988  12.381653  7.757355
Ar  11.294611  14.390647  7.732169
Ar  11.376839  12.006983  10.361680
Ar  13.608286  15.198235  11.197836
Ar  13.293400  12.311816  14.125986
Ar  10.231707  14.898434  15.105204
108
Frame 18 box=17.158430
Ar  0.665625  0.266255  16.350863
Ar  2.367192  3.632900  15.714384
Ar  2.324445  1.239005  2.565135
Ar  16.142098  3.037250  1.405523
Ar  16.207749  0.090814  5.707864
Ar  2.686998  3.697718  4.981201
Ar  2.276544  0.135928  8.354292
Ar  16.535888  2.999226  7.944426
Ar  16.990001  0.027288  11.587068
Ar  2.207281  3.287307  10.591298
Ar  2.651073  0.793860  13.241061
Ar  16.294995  3.336017  13.466259
Ar  16.164991  6.157471  16.654487
Ar  3.799174  8.163094  15.796614
Ar  1.969410  5.515367  1.819707
Ar  17.072993  9.110756  1.770881
Ar  16.634521  5.969155  6.200950
Ar  2.500945  8.811752  5.321685
Ar  2.647389  5.879237  8.243930
Ar  16.300207  9.572117  8.395215
Ar  16.834486  6.043665  10.649992
Ar  2.968142  8.537001  10.454092
Ar  2.546504  6.143672  12.925613
Ar  16.877827  10.261501  13.640340
Ar  16.363698  12.312151  16.354448
Ar  2.769999  13.232089  16.563422
Ar  2.095200  11.632691  2.757557
Ar  17.037957  14.678461  2.392038
Ar  0.374949  12.473700  5.508822
Ar  2.233875  15.388626  5.127845
Ar  2.136650  11.974986  8.522400
Ar  16.343981  14.697250  8.117118
Ar  16.348453  12.388371  10.800306
Ar  3.127436  14.915704  10.808069
Ar  4.530770  11.702853  13.090358
Ar  0.426078  14.510425  13.517491
Ar  4.517235  0.902285  16.511500
Ar  8.976701  3.209136  17.056010
Ar  7.538925  16.936103  2.644186
Ar  5.199747  3.443485  1.983140
Ar  4.980209  0.303577  5.503305
Ar  7.681403  2.521718  5.747874
Ar  8.681473  16.857733  8.034262
Ar  4.732944  2.914087  8.028850
Ar  5.585900  0.234149  10.380724
Ar  7.993115  2.955183  10.350997
Ar  7.863545  0.646799  14.506726
Ar  5.418842  2.797834  13.287588
Ar  5.592860  5.062837  16.146987
Ar  7.822752  8.354245  16.395633
Ar  7.875120  6.214456  2.781717
Ar  4.877799  8.522605  3.131668
Ar  5.417085  6.139563  5.954859
Ar  8.182804  8.667860  5.423665
Ar  8.859488  5.866348  7.660587
Ar  5.268646  9.868066  8.395688
Ar  5.784255  5.939595  9.823859
Ar  8.300297  8.758977  9.775168
Ar  8.840051  5.372460  14.069933
Ar  6.526022  8.632475  12.837639
Ar  5.527812  11.152238  0.611053
Ar  7.210721  14.657958  17.025102
Ar  8.512247  11.080186  2.631469
Ar  4.689489  14.994750  2.210733
Ar  5.404059  11.672885  5.121574
Ar  7.343895  14.461659  5.008848
Ar  8.417670  12.152369  7.877866
Ar  4.972786  14.582830  7.735293
Ar  7.977386  12.120103  11.486538
Ar  9.354541  14.976640  10.853302
Ar  8.117014  11.870559  15.596861
Ar  5.949761  14.860010  13.407921
Ar  11.122257  0.184955  0.482786
Ar  12.181300  3.665064  0.703563
Ar  14.266807  0.493833  2.345780
Ar  10.114420  3.409279  3.472893
Ar  11.052217  16.991828  4.904660
Ar  14.495904  3.803351  4.697553
Ar  13.206399  0.592661  8.273479
Ar  11.073694  3.273781  7.609809
Ar  10.680574  0.899027  11.194078
Ar  13.509042  3.574645  10.464177
Ar  14.015887  16.906614  14.543084
Ar  12.492538  3.262142  13.989037
Ar  11.791765  6.983197  16.860097
Ar  14.398248  9.294822  15.791580
Ar  14.263067  6.580993  2.753367
Ar  11.126795  9.029378  3.362620
Ar  11.511365  6.217431  5.240013
Ar  15.049667  9.202585  5.176316
Ar  13.793825  6.448226  8.384789
Ar  11.714694  9.444304  7.055865
Ar  11.040910  6.444095  11.212690
Ar  13.159236  9.228109  10.379848
Ar  14.189791  6.284403  13.389982
Ar  11.254295  9.309639  13.413848
Ar  11.172641  10.793588  16.988020
Ar  13.697602  14.899255  0.275684
Ar  14.215810  12.126338  2.505967
Ar  10.415876  14.093607  1.789392
Ar  11.379314  12.410147  4.739351
Ar  13.939027  14.862828  4.651547
Ar  14.255886  12.193936  7.351831
Ar  11.762364  14.438947  7.811013
Ar  11.728849  12.362846  10.478184
Ar  13.403343  15.640653  11.068927
Ar  12.953484  12.562472  14.459593
Ar  10.452358  15.101331  14.859575
108
Frame 19 box=17.158430
Ar  0.216707  0.434653  16.541519
Ar  2.452273  3.741581  15.783483
Ar  2.002261  1.075907  2.508678
Ar  16.142098  3.037250  1.405523
Ar  16.530573  0.655835  5.258127
Ar  2.197232  3.424006  5.375885
Ar  2.276544  0.135928  8.354292
Ar  16.685585  3.264058  8.066936
Ar  16.479496  0.855064  10.663845
Ar  2.079863  3.583376  10.843963
Ar  3.119252  0.751656  13.090523
Ar  16.756671  3.583861  13.522888
Ar  15.176972  5.845296  16.612546
Ar  3.514490  8.705785  16.604873
Ar  1.748496  5.662682  2.029565
Ar  17.081109  8.557417  1.498848
Ar  17.004329  6.256438  6.094139
Ar  2.268926  9.117576  5.726961
Ar  2.647389  5.879237  8.243930
Ar  16.322530  9.331363  7.913503
Ar  16.677228  6.432067  10.826278
Ar  2.482139  8.347353  10.521467
Ar  2.993954  6.390225  13.672308
Ar  17.109439  9.446625  13.316679
Ar  16.459736  12.217889  16.041624
Ar  2.731205  13.717937  16.152692
Ar  2.407899  11.191740  2.468845
Ar  0.429220  14.567585  2.077472
Ar  0.374949  12.473700  5.508822
Ar  2.170045  15.396215  4.847030
Ar  2.121733  11.920373  8.801299
Ar  16.384648  15.032953  8.021113
Ar  16.476292  12.475457  10.934972
Ar  2.449375  14.735638  10.791042
Ar  2.762940  11.849004  12.717534
Ar  0.451138  14.824181  13.747873
Ar  4.437992  0.746815  16.814762
Ar  8.816807  3.128544  17.051379
Ar  7.269301  0.665124  2.615398
Ar  5.199747  3.443485  1.983140
Ar  4.980209  0.303577  5.503305
Ar  7.698506  3.277209  5.595051
Ar  8.562724  0.224579  7.505539
Ar  5.212977  2.821445  8.284090
Ar  5.922476  16.945789  10.172721
Ar  8.187004  3.317243  10.115822
Ar  7.502911  0.712942  14.463897
Ar  5.483885  3.221197  12.296737
Ar  5.884546  5.054645  16.023527
Ar  8.028810  8.123466  16.735738
Ar  7.746217  5.735912  2.331947
Ar  4.855668  7.926426  2.863481
Ar  4.980969  5.522655  5.369864
Ar  7.728519  8.328804  5.088467
Ar  8.581397  5.967324  7.482025
Ar  5.078389  9.263285  7.966024
Ar  5.708211  6.043731  10.106841
Ar  9.254285  9.413996  9.051526
Ar  9.094395  5.307808  14.259991
Ar  6.707197  8.984553  13.437687
Ar  5.480009  11.609938  0.979207
Ar  6.777124  14.792680  16.693526
Ar  8.497148  11.226512  2.709736
Ar  4.696155  15.292269  2.240884
Ar  5.310634  11.588016  5.166402
Ar  7.466418  14.556652  4.981237
Ar  7.986897  12.329784  7.752328
Ar  4.775554  14.123485  7.709962
Ar  7.940121  11.539768  11.628177
Ar  8.742424  15.200841  11.115146
Ar  7.843169  11.569226  15.589199
Ar  5.735153  14.665263  13.115511
Ar  11.059061  0.179455  0.010380
Ar  12.590031  3.501802  0.256441
Ar  13.807589  0.930577  2.998653
Ar  10.317648  3.343482  3.420684
Ar  10.651838  17.010966  4.513110
Ar  14.369602  3.661643  5.289715
Ar  13.669060  0.961796  7.906916
Ar  11.073694  3.273781  7.609809
Ar  10.688557  1.151214  11.107703
Ar  13.985061  3.436947  10.540764
Ar  14.149321  16.758724  14.339576
Ar  12.597505  2.590113  13.710911
Ar  11.467850  7.222490  16.663389
Ar  14.398248  9.294822  15.791580
Ar  14.442245  6.346715  2.767285
Ar  11.545796  9.133649  2.939709
Ar  11.267023  6.165461  5.209363
Ar  14.950105  9.268078  4.562733
Ar  14.008691  6.237022  8.261594
Ar  12.421131  9.148825  7.235955
Ar  10.302457  5.967800  11.062674
Ar  13.797721  8.867083  10.704399
Ar  13.698964  6.147563  13.140407
Ar  11.265393  9.428717  13.128872
Ar  11.172641  10.793588  16.988020
Ar  13.697602  14.899255  0.275684
Ar  14.169104  11.702190  1.775266
Ar  10.608038  14.483998  1.916302
Ar  11.551998  12.090336  4.727929
Ar  14.361408  14.708156  4.684712
Ar  14.185076  12.209097  7.527679
Ar  11.515557  14.676739  8.232791
Ar  11.960093  11.971953  10.735290
Ar  13.858838  15.533602  11.001008
Ar  13.367020  12.329268  14.392311
Ar  10.138657  14.395220  14.519321
108
Frame 20 box=17.158430
Ar  0.580203  0.817944  16.430388
Ar  2.843361  3.137596  15.865798
Ar  2.294292  1.025526  2.300791
Ar  16.249367  2.702249  1.561788
Ar  16.420092  0.690517  5.178908
Ar  1.939977  3.561912  5.222430
Ar  2.703358  17.078639  8.205368
Ar  16.544659  3.616203  8.086178
Ar  16.386844  1.161108  11.042371
Ar  1.806158  3.933844  10.945386
Ar  2.814329  0.986678  12.674508
Ar  16.455113  3.445768  13.778828
Ar  15.938678  6.110206  16.092150
Ar  3.992600  8.004158  16.668458
Ar  2.193446  5.266196  1.644255
Ar  17.041689  8.333228  1.922767
Ar  0.025961  6.375580  5.019381
Ar  2.151258  9.056213  5.582768
Ar  2.492800  6.169690  7.836532
Ar  16.546150  8.842821  8.267559
Ar  16.526492  6.158505  10.988714
Ar  2.695951  8.784971  10.710623
Ar  2.242039  6.405458  13.655807
Ar  16.771837  9.323074  12.831879
Ar  0.248354  11.432348  16.482224
Ar  3.004794  13.484144  16.629297
Ar  2.338907  11.260900  2.654519
Ar  0.222451  14.787725  2.010850
Ar  17.075282  12.200744  5.367899
Ar  2.145203  15.289135  5.072078
Ar  2.045826  11.854593  8.442745
Ar  16.736304  15.019938  8.417902
Ar  16.042848  12.409406  11.518644
Ar  2.135681  14.911457  10.675249
Ar  2.826474  12.068284  12.699417
Ar  0.593581  15.198825  13.694424
Ar  4.941546  0.581057  16.734414
Ar  8.674679  3.136934  0.210116
Ar  7.465286  0.967000  2.957199
Ar  5.070187  3.743135  1.981076
Ar  4.687840  0.462046  5.102004
Ar  7.203547  2.895578  5.593922
Ar  8.723852  0.130908  7.343072
Ar  5.199331  2.742191  8.586522
Ar  5.438567  16.750414  10.446894
Ar  8.513947  3.202853  9.942901
Ar  7.752566  1.531077  14.158088
Ar  5.483885  3.221197  12.296737
Ar  5.773030  5.442053  15.693438
Ar  7.904053  8.314315  16.487733
Ar  7.935675  5.726601  2.755289
Ar  4.745780  8.135610  3.045227
Ar  5.000460  5.440702  5.412109
Ar  7.658538  8.324758  5.195168
Ar  7.906300  5.515022  7.387726
Ar  4.966219  9.622072  7.921883
Ar  5.920888  6.365791  10.124213
Ar  8.655619  9.472842  8.583519
Ar  8.942896  5.557201  14.259715
Ar  5.478611  8.934641  13.007260
Ar  5.702475  11.021227  0.436605
Ar  7.205091  15.216495  16.421367
Ar  8.843045  11.500470  3.107669
Ar  4.803061  14.863753  2.531903
Ar  5.291349  11.311819  4.666930
Ar  7.763317  14.636503  4.601178
Ar  8.376633  12.652323  7.572881
Ar  5.056819  14.317211  6.641055
Ar  7.807378  11.770125  11.476143
Ar  8.657756  14.862290  10.763967
Ar  7.953682  11.891223  15.128103
Ar  5.781702  14.677656  13.064493
Ar  10.832094  0.168211  17.011768
Ar  12.452791  3.645694  0.514891
Ar  13.612052  0.789319  2.759666
Ar  10.339056  2.629180  3.845972
Ar  10.972144  16.278929  4.713483
Ar  14.221127  3.666922  5.600888
Ar  13.597964  0.912743  7.805651
Ar  11.073694  3.273781  7.609809
Ar  10.762631  0.688746  10.866735
Ar  13.985061  3.436947  10.540764
Ar  14.188002  16.788994  14.671681
Ar  11.690984  2.885406  14.053741
Ar  11.308893  7.279547  16.884354
Ar  14.216409  9.306265  15.980298
Ar  14.244296  5.899683  2.905699
Ar  11.320434  9.017947  3.079536
Ar  10.820493  5.956965  5.070437
Ar  15.219604  9.024631  4.891457
Ar  13.713967  6.122299  7.812194
Ar  11.799221  9.146736  7.095771
Ar  10.588323  6.121820  10.109415
Ar  13.403430  9.371541  11.165218
Ar  13.336065  6.574711  13.080461
Ar  10.762404  8.996571  13.648787
Ar  10.663883  10.717059  0.039588
Ar  13.613602  14.723684  0.578488
Ar  14.061882  11.214388  1.842204
Ar  10.049201  14.199207  1.149068
Ar  11.757237  12.269419  4.904773
Ar  14.056838  15.061843  4.701353
Ar  14.671177  12.134838  7.830547
Ar  11.673800  14.911224  8.347289
Ar  11.615465  12.802840  11.429568
Ar  14.126014  15.665033  10.958146
Ar  13.439296  12.796639  14.305572
Ar  10.513595  14.631517  14.382284
108
Frame 21 box=17.158430
Ar  0.054195  0.302701  16.590781
Ar  2.838455  3.431728  15.631950
Ar  2.276696  1.062830  2.755120
Ar  16.293242  3.141883  1.227808
Ar  16.384227  0.626141  5.411134
Ar  2.338569  3.251878  5.570934
Ar  2.373999  0.087998  7.864657
Ar  16.859350  3.464066  8.273651
Ar  17.036285  0.543505  10.889081
Ar  2.094334  3.536160  11.180673
Ar  2.519434  0.557501  13.614448
Ar  16.588842  3.126218  14.099692
Ar  15.776377  6.077049  16.056329
Ar  3.185298  8.055055  16.464498
Ar  1.997457  5.200813  1.269907
Ar  0.456474  8.308972  2.039744
Ar  17.108122  6.134709  4.792393
Ar  2.036576  8.971300  5.339545
Ar  2.277268  6.261834  8.014469
Ar  16.546150  8.842821  8.267559
Ar  16.445985  6.149111  11.094238
Ar  2.695951  8.784971  10.710623
Ar  2.242039  6.405458  13.655807
Ar  16.903291  8.716220  13.636090
Ar  0.077777  10.956342  16.750852
Ar  3.307964  13.337120  16.708150
Ar  2.291463  11.789588  2.531563
Ar  16.910094  14.155724  1.459763
Ar  16.897901  11.886792  4.866766
Ar  2.010433  15.138444  5.002285
Ar  1.733151  11.944127  8.278825
Ar  16.292292  14.589875  8.387405
Ar  15.712280  11.734431  11.243678
Ar  1.975634  14.555111  10.913612
Ar  2.424703  11.581631  12.977174
Ar  16.941523  13.663333  14.296397
Ar  4.767540  0.205387  16.855774
Ar  8.375878  3.126388  0.181585
Ar  7.711840  0.638770  2.461372
Ar  4.969298  3.529432  2.373747
Ar  4.687840  0.462046  5.102004
Ar  7.203547  2.895578  5.593922
Ar  8.731623  0.055839  7.203142
Ar  4.565043  2.819734  8.308171
Ar  5.472659  0.409264  10.609754
Ar  7.811601  3.172520  10.406221
Ar  8.549054  1.193052  13.846429
Ar  5.378445  3.722123  12.871955
Ar  5.773030  5.442053  15.693438
Ar  7.794534  8.067686  16.976729
Ar  8.247238  5.616277  2.503459
Ar  5.030529  8.157431  2.624143
Ar  4.968514  5.489061  5.769166
Ar  8.025600  8.131726  4.832526
Ar  8.124539  5.356987  7.535007
Ar  4.853958  9.214398  7.677989
Ar  5.525333  6.231373  10.191155
Ar  8.260745  8.985787  9.058659
Ar  8.696153  4.957017  13.266724
Ar  5.832294  8.826896  13.643897
Ar  5.734386  11.105123  0.627051
Ar  7.310638  14.747190  16.236978
Ar  8.229800  11.307081  2.994711
Ar  4.749158  14.679998  2.328557
Ar  5.291349  11.311819  4.666930
Ar  7.832207  14.924768  4.312125
Ar  8.717726  13.239704  7.329901
Ar  4.758231  13.660652  7.181591
Ar  7.652943  12.163705  11.928195
Ar  8.917633  15.335406  10.370120
Ar  8.471701  11.337504  15.393587
Ar  4.762708  14.683417  13.930313
Ar  10.788639  0.141111  0.098814
Ar  12.242789  3.996457  0.441225
Ar  14.167215  0.793637  2.742261
Ar  10.497201  2.488601  3.844676
Ar  11.111219  16.122874  4.487470
Ar  13.962867  3.974655  5.118162
Ar  13.737442  1.114994  7.832259
Ar  11.188686  3.015385  7.740403
Ar  11.038900  1.101721  11.017271
Ar  13.953091  2.974470  11.023111
Ar  13.983250  17.017833  14.689054
Ar  11.742946  2.755112  14.026271
Ar  11.226066  7.219702  17.098635
Ar  13.877387  9.269599  15.943566
Ar  13.839155  6.639079  2.904112
Ar  11.119996  8.761628  3.283506
Ar  10.926383  5.608069  5.259289
Ar  14.527643  8.934905  5.295932
Ar  14.060518  6.252175  7.947566
Ar  11.341519  8.937220  6.750239
Ar  10.615026  6.741062  10.214998
Ar  13.072675  9.161153  10.940041
Ar  13.150999  6.316059  12.873206
Ar  10.572598  9.168824  13.613348
Ar  11.126215  10.867177  0.493868
Ar  13.503878  14.770710  0.442312
Ar  14.629938  11.079184  1.898455
Ar  10.049201  14.199207  1.149068
Ar  11.510122  12.498078  4.905621
Ar  14.669827  14.796592  4.455362
Ar  13.894079  11.641750  7.396495
Ar  11.814562  14.936709  7.765904
Ar  11.182676  12.151888  11.123170
Ar  13.190332  15.382094  11.189759
Ar  13.703379  13.038177  14.449418
Ar  10.646214  15.240559  13.659808
108
Frame 22 box=17.158430
Ar  0.069859  0.108129  16.608911
Ar  2.503429  3.703848  15.451128
Ar  2.447023  0.888241  2.310534
Ar  15.870151  3.495310  1.205019
Ar  16.529718  0.850527  4.975661
Ar  1.722422  3.396936  5.554171
Ar  1.936734  17.004964  7.810584
Ar  16.595517  3.666087  8.021916
Ar  16.628363  0.176604  10.670453
Ar  1.984296  3.159951  11.335558
Ar  2.237733  0.207743  13.542546
Ar  16.283936  3.110098  14.411992
Ar  16.179758  6.325915  16.119836
Ar  2.767971  8.377685  16.487798
Ar  2.086709  5.082159  1.733660
Ar  0.365958  8.497668  2.074463
Ar  17.074978  6.397218  5.191314
Ar  2.020505  9.079668  5.416877
Ar  2.277268  6.261834  8.014469
Ar  16.591457  8.713346  8.302193
Ar  17.115813  5.967368  10.952009
Ar  2.751612  8.565852  10.412584
Ar  3.041208  6.441404  13.275906
Ar  0.012076  9.225926  13.699307
Ar  16.923806  11.069590  16.499241
Ar  2.624332  12.861608  16.550008
Ar  2.541880  11.515011  2.507986
Ar  16.910094  14.155724  1.459763
Ar  17.075860  11.670179  4.777859
Ar  2.344562  14.478414  5.028127
Ar  1.274492  11.949311  7.889911
Ar  16.224968  14.780566  7.579971
Ar  16.388300  12.008962  11.089887
Ar  2.201139  14.525653  10.625656
Ar  2.537863  11.457848  12.512692
Ar  0.277502  14.316560  14.078164
Ar  5.036177  0.523376  16.751678
Ar  7.815660  3.129232  17.020814
Ar  7.892620  0.860295  2.728279
Ar  5.004217  3.804910  2.853316
Ar  4.865843  17.062634  5.918779
Ar  7.063044  2.598687  5.635875
Ar  8.973472  16.867837  7.494611
Ar  4.419199  2.895066  8.560309
Ar  5.315736  0.148672  10.540732
Ar  7.719747  2.801830  9.570201
Ar  8.317932  1.205402  14.273578
Ar  5.449523  4.125708  12.622775
Ar  5.401699  5.521122  16.005537
Ar  7.532689  8.321963  0.137638
Ar  8.172869  5.399241  2.667696
Ar  4.864030  7.565070  2.808758
Ar  5.081528  5.662390  6.115661
Ar  8.025600  8.131726  4.832526
Ar  8.124539  5.356987  7.535007
Ar  4.853958  9.214398  7.677989
Ar  5.452960  6.202477  9.793861
Ar  7.967944  9.377477  8.814627
Ar  8.960832  5.589140  13.442600
Ar  5.376453  9.026006  13.673537
Ar  5.297278  10.997342  0.849359
Ar  7.285259  14.800008  16.118140
Ar  8.291450  11.151902  2.394584
Ar  4.872822  15.031123  1.731478
Ar  5.209095  11.647405  4.478634
Ar  7.945148  14.658250  4.288731
Ar  8.487471  12.882374  7.482314
Ar  4.575700  13.774843  8.173191
Ar  7.652943  12.163705  11.928195
Ar  9.107088  15.546434  10.668157
Ar  7.678339  11.550447  15.241957
Ar  4.382457  14.169187  13.245075
Ar  11.186210  0.178409  0.701778
Ar  12.031789  3.587411  0.591963
Ar  13.962062  0.770935  2.640351
Ar  10.497201  2.488601  3.844676
Ar  11.513596  16.441303  4.746761
Ar  14.209876  3.821843  5.391372
Ar  14.003884  0.896785  7.852921
Ar  11.162174  3.692009  8.016735
Ar  10.859926  1.495245  10.753237
Ar  13.908479  3.343377  10.926398
Ar  14.486249  16.788860  14.493171
Ar  11.433240  3.141241  13.864787
Ar  11.000945  6.938381  16.954491
Ar  13.903819  9.278155  15.753056
Ar  13.435712  6.183182  2.578584
Ar  10.763806  9.025677  3.099382
Ar  11.077104  5.797080  5.263220
Ar  14.527643  8.934905  5.295932
Ar  13.781035  6.128089  8.521405
Ar  11.228038  9.117176  6.873654
Ar  10.568815  6.767350  9.720615
Ar  13.609209  9.679802  11.773114
Ar  12.813659  6.248617  13.137123
Ar  10.907547  9.445652  13.823323
Ar  10.993349  10.478456  0.007833
Ar  13.269248  14.551831  0.358873
Ar  14.213760  10.636200  2.272187
Ar  10.008585  14.056336  1.315589
Ar  10.877966  12.601466  4.493578
Ar  14.911742  14.542950  4.361864
Ar  14.373197  11.722565  7.647986
Ar  11.694056  14.758704  7.669204
Ar  10.852511  12.425533  10.448872
Ar  13.498329  15.546948  10.930660
Ar  13.921520  12.637682  14.375859
Ar  10.896235  14.735859  14.005980
108
Frame 23 box=17.158430
Ar  16.903581  0.398685  16.505506
Ar  2.888467  2.941514  15.101407
Ar  1.898717  0.807496  1.826093
Ar  16.017805  3.673690  0.950851
Ar  17.117875  0.572755  4.926079
Ar  2.514660  2.716396  5.441934
Ar  1.799857  17.135339  7.889111
Ar  16.631898  2.885340  8.705632
Ar  16.616887  17.062267  10.603104
Ar  2.378696  2.797242  11.076506
Ar  2.101986  0.015916  13.610973
Ar  16.347597  3.389491  14.269850
Ar  17.091120  6.589807  16.136499
Ar  2.816311  8.579624  16.484197
Ar  2.009946  5.362729  2.348306
Ar  0.365958  8.497668  2.074463
Ar  16.961263  6.356689  5.155284
Ar  2.351720  9.306998  6.009058
Ar  2.232369  5.947987  8.206926
Ar  16.314990  8.850662  8.459625
Ar  0.060031  6.256957  11.098165
Ar  2.962618  9.099580  10.232357
Ar  2.733009  6.273870  13.847365
Ar  17.039803  9.208185  13.506358
Ar  17.051761  10.994565  16.940023
Ar  2.628341  13.869319  16.553444
Ar  2.368578  11.226256  2.684200
Ar  16.625124  14.116930  1.361954
Ar  16.353448  11.401630  4.490429
Ar  2.344562  14.478414  5.028127
Ar  1.272852  12.633807  8.127461
Ar  15.531331  14.899248  7.637559
Ar  16.430283  12.078493  10.737835
Ar  2.107802  14.755845  10.900801
Ar  2.890033  11.386478  13.484880
Ar  17.024340  14.178824  13.625902
Ar  4.872053  0.304351  17.128313
Ar  7.354488  3.058649  16.760616
Ar  7.670282  0.468958  2.774003
Ar  5.060861  3.718980  2.580557
Ar  4.763835  16.696502  5.566951
Ar  7.063044  2.598687  5.635875
Ar  8.483291  17.095186  7.445381
Ar  4.213620  2.957250  8.407938
Ar  5.074839  0.551237  10.974815
Ar  7.741234  2.816166  9.736129
Ar  8.925902  0.656332  14.270920
Ar  5.527187  4.076506  12.800488
Ar  4.525584  5.442138  16.958000
Ar  7.277531  8.602238  0.032574
Ar  8.818265  5.646062  2.578377
Ar  4.818554  7.761522  3.021231
Ar  4.839910  5.597908  6.097910
Ar  8.015180  8.546437  4.819890
Ar  7.807814  5.933407  7.520775
Ar  5.255681  9.432431  7.671944
Ar  5.571816  6.740265  10.428549
Ar  8.185389  9.336571  9.126950
Ar  8.763249  5.656206  14.397001
Ar  5.460637  9.250486  13.189095
Ar  5.068802  10.915438  0.555865
Ar  7.078518  14.665184  16.600879
Ar  8.268231  11.021233  2.233265
Ar  4.609713  14.616037  2.485364
Ar  5.375595  11.108643  4.303684
Ar  7.600377  14.325351  4.371194
Ar  8.330232  12.746390  7.534730
Ar  5.356099  14.326330  9.040933
Ar  7.795017  11.447499  11.848344
Ar  8.538363  15.782475  10.526954
Ar  8.172814  11.719069  15.342515
Ar  4.663836  14.684468  13.777391
Ar  11.068172  0.238936  0.927452
Ar  11.877429  3.547945  0.928308
Ar  13.800684  1.052960  3.306554
Ar  10.217469  2.581581  4.013793
Ar  11.095073  16.448528  4.832352
Ar  14.138730  4.301148  5.592425
Ar  13.190781  0.765637  7.384102
Ar  10.726678  3.135973  7.430951
Ar  11.130928  1.212074  10.793005
Ar  13.570813  3.734832  10.959187
Ar  14.786054  16.744898  13.986664
Ar  11.864644  3.095855  14.338905
Ar  10.735044  6.796486  16.855878
Ar  13.849141  8.867847  15.949337
Ar  13.736110  5.931511  2.682868
Ar  10.983543  8.725232  2.980132
Ar  10.817906  6.096742  5.546378
Ar  14.385035  8.726251  5.017713
Ar  13.992995  6.362928  8.701833
Ar  11.635935  9.518401  7.170797
Ar  10.422306  6.878825  9.774064
Ar  13.412414  9.187910  11.406587
Ar  13.528922  6.022962  13.544800
Ar  10.907547  9.445652  13.823323
Ar  11.066724  10.600348  16.973529
Ar  13.265346  14.333644  0.796164
Ar  14.258509  10.691017  1.837993
Ar  9.723447  14.052444  1.461191
Ar  10.893843  11.871414  4.662756
Ar  14.240797  14.713972  4.166748
Ar  14.307072  11.477837  7.423569
Ar  11.922435  14.565242  7.495441
Ar  11.261949  11.988039  9.861203
Ar  13.209454  14.928072  11.342733
Ar  13.769757  12.313554  13.911828
Ar  10.896235  14.735859  14.005980
108
Frame 24 box=17.158430
Ar  0.108086  0.000420  16.429801
Ar  2.321210  3.366568  15.908040
Ar  2.009966  0.877427  2.304679
Ar  16.488787  3.654569  1.005515
Ar  0.142980  16.961336  5.000104
Ar  2.514660  2.716396  5.441934
Ar  1.656173  16.551933  8.245495
Ar  16.866809  3.500104  8.815510
Ar  16.694477  16.646982  11.146052
Ar  2.070335  3.261111  11.672946
Ar  2.483479  16.838531  14.092014
Ar  16.222006  3.420534  13.845850
Ar  16.783709  6.690080  16.224051
Ar  2.638210  8.810820  16.045022
Ar  2.164748  5.483417  2.395604
Ar  16.887626  8.188078  2.173018
Ar  16.851775  6.114513  5.488744
Ar  2.506608  8.992648  5.783400
Ar  2.232369  5.947987  8.206926
Ar  16.994113  9.110121  8.494398
Ar  16.933387  6.101628  11.431654
Ar  2.762057  8.646372  10.800050
Ar  2.713803  6.149189  13.767467
Ar  16.912221  9.108195  13.431729
Ar  17.092220  11.505537  16.396673
Ar  2.827679  14.395968  16.652272
Ar  2.197809  11.175351  2.187555
Ar  0.020923  14.675016  2.189013
Ar  16.630756  11.737723  4.579431
Ar  2.480104  14.259555  4.860561
Ar  1.705422  12.131783  8.101601
Ar  15.449945  15.147587  8.157917
Ar  15.813609  12.495472  10.808165
Ar  2.495306  14.572908  10.982422
Ar  2.542493  11.552556  12.919026
Ar  0.042890  14.439633  14.176620
Ar  4.700036  0.540080  17.119590
Ar  7.492565  3.293630  16.939825
Ar  7.582954  0.427942  2.226052
Ar  5.190300  3.398647  2.634737
Ar  5.305743  0.298121  4.931644
Ar  7.203069  3.155039  6.158953
Ar  8.372430  16.758605  6.746212
Ar  4.401383  2.469999  8.518198
Ar  5.102053  0.785736  12.034706
Ar  7.853297  3.210297  9.658739
Ar  8.307079  0.535070  13.973767
Ar  5.527187  4.076506  12.800488
Ar  4.708384  5.991963  16.764335
Ar  7.779433  8.738361  16.343543
Ar  9.073147  5.621698  2.988842
Ar  4.821067  7.726516  2.824375
Ar  4.722690  5.995655  5.681723
Ar  7.988638  8.794965  5.066464
Ar  7.438044  6.062481  7.777148
Ar  5.255681  9.432431  7.671944
Ar  5.248032  6.445759  10.364866
Ar  8.850230  9.398496  9.589262
Ar  8.557951  5.254246  14.114183
Ar  5.431888  9.147355  13.032477
Ar  4.833477  11.046856  0.369878
Ar  6.968780  14.863826  16.658524
Ar  8.340235  10.973665  2.086565
Ar  4.759748  14.461754  2.377971
Ar  5.559325  11.189206  4.148652
Ar  7.600377  14.325351  4.371194
Ar  8.349942  12.613753  7.534348
Ar  5.195247  15.190031  8.228408
Ar  7.748037  11.891150  11.719696
Ar  8.632430  16.346392  10.161436
Ar  8.682512  12.211564  15.152845
Ar  5.270048  14.549783  13.335469
Ar  10.384317  0.422777  0.205637
Ar  12.161476  3.512489  0.580422
Ar  13.994101  1.388381  2.938614
Ar  10.204294  2.432649  3.812740
Ar  10.766785  16.430295  4.600007
Ar  13.907864  4.161741  5.527209
Ar  13.296473  0.772200  6.976391
Ar  10.726678  3.135973  7.430951
Ar  11.131514  1.696255  10.513988
Ar  13.910441  3.608937  10.698974
Ar  14.805256  0.115283  13.966806
Ar  12.135710  2.612493  13.931441
Ar  10.719165  7.054617  0.107535
Ar  13.927434  8.651020  15.654328
Ar  13.739165  5.988607  2.308068
Ar  11.097073  8.988433  3.288127
Ar  10.927396  6.185336  5.933659
Ar  14.353085  8.970219  5.215624
Ar  14.801553  6.452255  8.348563
Ar  11.448710  9.586230  7.038412
Ar  11.051912  6.956855  9.814532
Ar  13.973058  9.132486  10.867244
Ar  13.559071  5.969565  13.488051
Ar  10.756010  9.301875  13.428158
Ar  11.422345  10.937496  17.029726
Ar  13.665444  13.868892  1.111319
Ar  14.133396  10.625213  2.155718
Ar  9.656229  14.077454  1.570426
Ar  11.219604  12.401213  4.610440
Ar  14.593780  14.765495  4.649285
Ar  14.307072  11.477837  7.423569
Ar  11.302132  14.587051  7.551274
Ar  11.161208  12.642761  10.919480
Ar  13.270384  15.639342  11.301989
Ar  13.983199  11.928391  13.799050
Ar  11.847280  14.869299  14.712107
108
Frame 25 box=17.158430
Ar  0.108086  0.000420  16.429801
Ar  2.239903  3.274243  15.599812
Ar  3.091929  0.469077  2.734066
Ar  15.826298  3.447937  1.006367
Ar  0.093400  17.117091  5.337427
Ar  2.276404  2.929404  5.705354
Ar  2.102184  16.850316  8.131901
Ar  16.739471  3.652781  8.737556
Ar  16.472594  17.013920  11.235729
Ar  2.232189  3.367547  11.958764
Ar  2.508394  16.875812  13.844591
Ar  16.222006  3.420534  13.845850
Ar  16.934075  6.225547  16.129248
Ar  1.899414  8.899883  16.216649
Ar  2.066283  4.773451  2.361414
Ar  17.138062  8.752637  2.338976
Ar  17.133880  5.977931  5.595864
Ar  2.353406  9.020696  5.359029
Ar  2.573940  5.565281  8.592095
Ar  16.930764  9.165980  8.314160
Ar  0.176940  6.368307  11.303158
Ar  2.890281  9.099818  10.170238
Ar  3.328562  6.844588  12.925030
Ar  16.826965  9.328012  13.241708
Ar  16.582856  11.110905  16.926975
Ar  3.456182  13.761348  16.071287
Ar  2.414859  11.629271  1.974588
Ar  0.560363  14.809228  1.491981
Ar  17.130154  11.616703  4.890523
Ar  2.329333  14.158411  5.304977
Ar  2.056005  12.196952  8.305807
Ar  15.584563  15.159659  8.241222
Ar  15.872200  12.153401  10.905909
Ar  2.495306  14.572908  10.982422
Ar  2.933686  11.692687  13.029629
Ar  0.063755  14.048771  14.551164
Ar  4.503997  17.126561  16.786328
Ar  7.679909  2.744404  16.708985
Ar  7.237460  17.128370  2.222998
Ar  5.907487  3.757832  2.390885
Ar  5.530656  16.806256  5.024466
Ar  6.396957  2.714424  5.927973
Ar  8.853094  16.898033  7.177337
Ar  4.061681  2.592843  9.092455
Ar  4.953458  0.905662  12.107915
Ar  7.544164  3.394040  10.090080
Ar  9.076328  16.288385  13.764982
Ar  5.876586  3.837314  13.450882
Ar  4.919019  6.145004  16.673699
Ar  7.799834  8.487100  16.137431
Ar  9.073147  5.621698  2.988842
Ar  4.546995  7.968207  2.562151
Ar  4.908780  6.501567  5.823523
Ar  8.020899  8.417796  4.621162
Ar  7.924857  6.516661  7.616119
Ar  5.757913  9.232761  7.813278
Ar  5.588774  6.633684  10.254556
Ar  8.571744  9.218086  9.765944
Ar  8.576057  5.740869  14.482148
Ar  6.095052  9.256009  12.996921
Ar  5.609940  11.264552  0.165310
Ar  7.072001  14.702715  16.442427
Ar  8.669586  10.945426  1.791498
Ar  4.759748  14.461754  2.377971
Ar  5.509749  10.915359  4.090212
Ar  7.813336  14.056543  4.388846
Ar  8.230097  12.723664  7.539890
Ar  5.103044  14.480317  7.560389
Ar  7.416476  12.219772  11.643213
Ar  8.964297  15.130690  10.251920
Ar  8.516730  11.943878  14.798626
Ar  5.270048  14.549783  13.335469
Ar  10.850895  0.309100  0.939643
Ar  12.161476  3.512489  0.580422
Ar  13.868952  1.271174  3.350013
Ar  10.315694  2.655242  4.087255
Ar  11.061215  16.367771  4.380007
Ar  13.907864  4.161741  5.527209
Ar  13.702061  0.879372  7.183731
Ar  10.338158  3.288270  7.555021
Ar  10.606394  1.314304  10.714309
Ar  13.633924  3.224052  11.020270
Ar  14.508875  0.092537  14.347354
Ar  10.918026  2.032645  14.689875
Ar  10.719165  7.054617  0.107535
Ar  13.774521  9.098215  15.722260
Ar  14.265885  6.740627  1.942644
Ar  11.521661  8.751666  3.136276
Ar  11.091443  6.413385  6.016906
Ar  14.808156  8.989825  5.119419
Ar  14.585410  6.410314  8.378912
Ar  10.969366  9.636072  6.726407
Ar  11.134655  6.607781  9.829665
Ar  13.653851  8.853621  11.096898
Ar  12.765027  6.051201  13.442853
Ar  10.290583  8.534930  13.620298
Ar  11.289688  11.268220  16.533805
Ar  13.464254  13.962513  1.292657
Ar  14.133396  10.625213  2.155718
Ar  9.656229  14.077454  1.570426
Ar  11.538577  12.561450  4.726458
Ar  14.593466  14.294702  4.798685
Ar  14.307072  11.477837  7.423569
Ar  11.775544  14.783742  7.851316
Ar  11.255984  11.632190  10.711910
Ar  13.315656  15.505912  11.267522
Ar  13.676220  11.842310  13.858772
Ar  11.831498  14.944862  15.462753
108
Frame 26 box=17.158430
Ar  17.096577  17.143132  16.605083
Ar  2.764215  3.113195  15.743283
Ar  2.638298  0.957056  2.499723
Ar  16.765589  3.247415  0.827888
Ar  0.101536  16.660210  5.295683
Ar  2.600986  3.246070  5.753447
Ar  1.454680  17.101382  8.405317
Ar  17.041013  3.380283  8.479229
Ar  16.760026  16.941850  11.574855
Ar  2.093597  3.452508  11.995344
Ar  2.233104  0.057305  14.026866
Ar  15.884784  3.557821  13.972451
Ar  0.017865  6.288122  15.332025
Ar  2.254820  8.626668  16.130462
Ar  1.982949  5.437629  2.297323
Ar  16.981621  8.639874  2.175655
Ar  0.008348  5.861843  5.312048
Ar  2.234030  8.861680  5.732055
Ar  2.409780  5.769837  8.126523
Ar  16.859945  9.332836  8.135742
Ar  17.073545  6.575778  11.911002
Ar  2.406976  9.341852  10.506998
Ar  3.518476  7.007958  13.102505
Ar  0.069364  9.948263  13.695045
Ar  16.609460  11.518764  17.155945
Ar  3.030894  14.053191  15.986851
Ar  2.764352  11.733407  2.136624
Ar  0.288630  15.081562  2.028251
Ar  17.100987  12.190109  4.943423
Ar  3.197653  14.301792  5.134490
Ar  2.257354  12.011181  8.559826
Ar  15.858342  15.065744  8.186934
Ar  16.490481  12.713851  11.125248
Ar  2.961456  14.606706  10.713734
Ar  3.275832  11.594340  12.802611
Ar  17.035726  14.041074  14.604744
Ar  4.486279  17.102324  16.947099
Ar  8.181749  2.907886  16.994599
Ar  7.535944  0.449078  2.275456
Ar  5.279750  3.535631  2.032030
Ar  5.218280  0.369828  5.194025
Ar  6.540011  3.007746  6.668990
Ar  8.904259  17.120515  6.781161
Ar  3.806560  2.222630  9.439492
Ar  5.706858  0.089702  11.096801
Ar  7.372627  3.385404  10.428811
Ar  9.102079  16.490422  13.396862
Ar  5.908820  2.346917  14.260337
Ar  5.147307  5.696159  16.100664
Ar  7.398923  8.220372  16.242216
Ar  9.073147  5.621698  2.988842
Ar  4.674469  8.079709  2.038845
Ar  4.845626  6.010596  5.448454
Ar  7.919805  8.529661  4.338749
Ar  7.909893  6.367595  7.367934
Ar  5.420279  9.259954  8.035213
Ar  5.750070  6.415350  10.109697
Ar  8.737149  9.432695  9.833835
Ar  9.450507  5.620675  14.142066
Ar  6.521305  8.623820  12.763484
Ar  5.609940  11.264552  0.165310
Ar  7.252035  15.165724  16.477215
Ar  8.878825  10.417179  1.324833
Ar  4.729650  14.892978  2.184702
Ar  5.186340  10.862384  4.941478
Ar  7.483391  14.061449  4.862726
Ar  8.576009  12.429440  7.463952
Ar  5.556291  14.849524  8.151870
Ar  7.438642  12.255600  11.487167
Ar  8.980236  15.306408  9.973079
Ar  8.410555  12.372243  15.061852
Ar  5.193951  14.479558  13.448365
Ar  10.654962  0.330070  0.697366
Ar  12.155967  3.436374  1.092620
Ar  14.303246  0.515829  3.338488
Ar  10.480513  2.676358  4.117012
Ar  11.285905  16.314750  4.561986
Ar  13.870781  4.500982  5.268202
Ar  14.468273  1.409736  6.567502
Ar  10.496959  3.345371  7.609367
Ar  10.634172  1.602934  10.729342
Ar  13.958123  3.006599  10.898141
Ar  14.156521  0.571374  14.214740
Ar  10.739089  2.013792  14.443672
Ar  10.719165  7.054617  0.107535
Ar  14.500433  8.830690  16.084605
Ar  14.411860  6.314074  1.556518
Ar  11.241612  8.611863  3.488211
Ar  11.265349  6.443853  6.087763
Ar  14.847719  8.579075  5.104209
Ar  14.122861  5.920382  8.662040
Ar  11.494812  10.012900  6.718585
Ar  10.887221  6.187694  10.395435
Ar  13.762091  8.729686  11.204618
Ar  13.036346  6.414142  13.701177
Ar  10.178115  9.418250  13.554158
Ar  11.716480  11.330488  16.317333
Ar  13.529373  13.987769  1.670230
Ar  14.055120  10.531586  2.020909
Ar  9.656229  14.077454  1.570426
Ar  11.568472  12.468473  3.948040
Ar  14.491617  14.577408  4.885243
Ar  14.630739  11.899631  7.560837
Ar  12.011645  14.739691  7.709446
Ar  12.132484  11.810949  10.129872
Ar  12.532925  15.780995  10.788845
Ar  14.049514  11.856939  13.767705
Ar  12.265053  15.110571  15.214847
108
Frame 27 box=17.158430
Ar  16.733481  17.010111  17.047719
Ar  2.481646  3.262128  15.965912
Ar  2.424796  0.819995  2.707783
Ar  16.331093  3.080653  1.384892
Ar  17.067382  0.129539  5.481874
Ar  2.569684  2.495153  6.131937
Ar  0.787673  0.683532  8.879482
Ar  16.791668  3.881776  9.170615
Ar  16.022030  16.082157  11.857704
Ar  2.437337  3.041572  12.154966
Ar  1.826893  17.057291  13.803593
Ar  15.854738  3.354410  13.874227
Ar  16.906415  6.273818  15.978417
Ar  2.225803  9.112389  16.048781
Ar  2.546298  5.827231  1.070823
Ar  17.087547  8.756613  2.599150
Ar  0.627853  5.535285  4.436048
Ar  2.193170  8.690854  5.316724
Ar  2.431543  5.767805  8.149588
Ar  16.624771  9.106693  7.847780
Ar  16.722956  6.439552  11.900439
Ar  2.454775  8.705617  10.179369
Ar  3.281488  7.018445  13.021373
Ar  17.113086  9.661422  13.396353
Ar  16.413865  11.918763  0.193407
Ar  3.118231  14.300875  16.369297
Ar  2.074055  11.500131  2.115256
Ar  0.653152  14.587192  2.331059
Ar  0.375294  11.870945  5.022616
Ar  2.840012  14.741341  5.618358
Ar  2.010788  11.364504  7.992663
Ar  16.023741  14.765625  8.685182
Ar  16.702674  11.714876  10.705926
Ar  2.927554  15.483599  10.674547
Ar  2.991650  11.879874  13.026589
Ar  16.927905  13.496598  14.040228
Ar  4.842349  0.379006  16.850932
Ar  7.834783  2.870606  16.843249
Ar  7.684182  0.534807  2.301617
Ar  5.864316  3.530978  2.569058
Ar  5.689315  0.110293  5.176178
Ar  6.365385  3.235155  6.934859
Ar  9.078146  0.229317  6.966970
Ar  3.951594  1.687045  9.304074
Ar  6.123656  17.144161  11.097002
Ar  7.352921  3.350196  10.621229
Ar  8.952666  16.584420  13.015664
Ar  6.184196  2.662297  13.844642
Ar  5.412993  5.356310  16.008948
Ar  7.620564  8.449866  16.167511
Ar  9.275675  5.462488  2.891655
Ar  5.020593  8.011947  2.674937
Ar  4.876827  5.968827  5.151421
Ar  8.109105  8.859151  5.042562
Ar  8.060147  6.457898  7.627416
Ar  5.182048  9.306325  8.292969
Ar  5.261820  6.380100  10.093253
Ar  8.472787  9.187752  10.054736
Ar  9.048734  5.055570  13.880869
Ar  5.913981  9.502089  13.062740
Ar  5.512749  11.760491  16.502300
Ar  7.564638  15.475771  16.216743
Ar  8.640839  10.548676  1.619859
Ar  4.854901  14.442933  2.671072
Ar  5.179958  10.991180  5.239871
Ar  7.857831  13.538602  4.560215
Ar  8.306404  12.174207  7.856053
Ar  5.495891  14.799941  8.105158
Ar  7.154071  12.180910  11.386708
Ar  8.702192  15.199436  9.895041
Ar  8.764904  12.430142  14.888939
Ar  5.344818  14.508970  13.199154
Ar  10.627604  0.209918  0.878645
Ar  12.054838  4.088277  0.689267
Ar  13.923901  0.590791  2.476437
Ar  10.819973  2.388611  3.967633
Ar  10.922641  15.822309  4.322411
Ar  13.975891  4.309297  5.431896
Ar  13.511900  0.674892  7.942720
Ar  10.496959  3.345371  7.609367
Ar  10.597922  1.730754  10.778275
Ar  13.596486  3.002047  11.518900
Ar  13.847494  0.502088  14.367702
Ar  10.922123  2.353085  14.984351
Ar  11.028416  7.228512  16.727779
Ar  14.405517  8.751992  16.181162
Ar  14.723720  5.929150  1.907389
Ar  11.241612  8.611863  3.488211
Ar  11.265349  6.443853  6.087763
Ar  14.536831  8.745901  5.103139
Ar  13.808431  5.947968  8.691477
Ar  11.259965  10.047859  7.017879
Ar  10.687371  5.806964  10.000669
Ar  13.860156  8.573553  11.267903
Ar  13.093256  6.005414  14.049691
Ar  10.502133  8.399142  13.136152
Ar  11.678231  11.352022  16.422263
Ar  13.456383  13.826347  1.280097
Ar  13.887467  10.485639  1.987220
Ar  9.656229  14.077454  1.570426
Ar  11.493253  12.403840  3.905868
Ar  14.902532  14.551862  5.013167
Ar  14.642327  11.964080  7.272856
Ar  11.548831  14.541441  7.671749
Ar  12.284273  12.033128  10.132247
Ar  12.825321  15.340001  11.406618
Ar  13.656579  11.780306  13.476598
Ar  11.920557  14.704746  15.460258
108
Frame 28 box=17.158430
Ar  16.455846  17.088612  17.035111
Ar  2.092485  2.973667  16.082764
Ar  2.521556  0.968856  2.239401
Ar  16.854606  3.271673  1.254842
Ar  16.512754  0.544656  5.005236
Ar  2.642118  2.787650  5.767788
Ar  0.813440  0.446903  8.983463
Ar  16.847543  3.923497  8.801309
Ar  15.618384  16.507038  11.116732
Ar  1.583550  3.229076  11.601532
Ar  1.987348  16.744968  13.459197
Ar  16.006437  2.956970  14.191528
Ar  0.121400  6.339524  15.689683
Ar  3.415499  8.955082  15.634103
Ar  2.726151  6.306453  0.983914
Ar  0.148465  8.565398  2.542247
Ar  0.611916  5.298723  4.154928
Ar  2.680160  8.902365  5.403658
Ar  2.409119  6.228791  7.973321
Ar  16.814821  9.193078  7.616406
Ar  16.493163  6.559791  12.306243
Ar  2.031523  8.618217  10.358408
Ar  3.117168  6.219302  13.071085
Ar  0.005013  9.874073  14.319422
Ar  16.423130  11.811370  17.053598
Ar  2.499585  14.957154  16.580395
Ar  2.579717  11.454364  2.390006
Ar  17.096143  15.082975  2.469321
Ar  0.369740  12.260606  5.186017
Ar  2.579623  15.149461  6.340813
Ar  2.629292  11.583604  7.840153
Ar  16.684349  14.245235  8.502556
Ar  16.371438  11.547155  11.100104
Ar  2.886591  14.834258  10.431834
Ar  3.111832  11.453107  13.018979
Ar  16.736929  14.040493  13.873933
Ar  5.042518  0.568156  16.616904
Ar  8.100870  3.227521  16.890044
Ar  8.070769  0.704212  2.645973
Ar  5.758569  3.488214  2.607887
Ar  5.113385  0.282193  4.970877
Ar  6.177997  3.176804  6.873345
Ar  8.534947  0.456971  7.053963
Ar  3.951594  1.687045  9.304074
Ar  6.317691  0.288101  11.323669
Ar  7.427546  3.461074  10.390448
Ar  9.110228  16.566495  13.342997
Ar  5.928869  2.700593  13.950039
Ar  5.725504  5.617144  16.372735
Ar  7.281482  8.457836  15.262989
Ar  8.348147  5.471458  2.530798
Ar  5.080649  8.576671  2.303593
Ar  5.478973  6.070620  5.336747
Ar  8.313125  9.154997  5.420454
Ar  8.258291  6.151554  7.597127
Ar  5.444001  9.165116  7.818244
Ar  5.241251  5.877312  9.804188
Ar  8.054803  9.089933  10.200071
Ar  9.048734  5.055570  13.880869
Ar  5.336022  9.270168  12.440281
Ar  5.242071  11.765353  16.952967
Ar  7.564638  15.475771  16.216743
Ar  8.192878  10.774625  1.449792
Ar  5.053736  14.530703  2.305496
Ar  5.229028  11.746784  4.672177
Ar  7.981967  13.910353  4.912450
Ar  8.483241  11.816586  7.919019
Ar  5.395306  14.485688  8.003557
Ar  7.107755  12.635622  11.304441
Ar  8.702192  15.199436  9.895041
Ar  8.286699  12.381208  14.721961
Ar  4.847000  14.830305  13.761175
Ar  10.789936  0.077491  0.378659
Ar  11.609434  4.017384  0.727036
Ar  13.780386  0.894009  2.325131
Ar  10.819973  2.388611  3.967633
Ar  10.854286  15.884407  4.137353
Ar  14.330067  4.147100  5.362773
Ar  13.711281  0.302196  8.404320
Ar  10.841961  3.470008  7.300399
Ar  10.665143  2.195925  10.971313
Ar  13.865362  3.807108  10.837139
Ar  13.936144  17.023835  14.101232
Ar  11.172506  2.125638  14.813488
Ar  10.520726  7.184316  16.974836
Ar  14.379023  8.209273  16.347447
Ar  14.630752  6.051536  2.447300
Ar  11.230733  8.152509  3.156418
Ar  11.423923  6.771956  6.186880
Ar  14.588932  8.422324  5.045064
Ar  14.321531  6.445702  8.139364
Ar  11.259750  9.823584  7.815359
Ar  10.640280  5.618101  10.446403
Ar  13.426447  8.810912  10.811676
Ar  13.062299  5.398986  13.985464
Ar  10.913303  8.234616  13.574876
Ar  11.047032  10.652450  16.525221
Ar  13.423414  14.043555  1.236626
Ar  13.887467  10.485639  1.987220
Ar  9.475367  13.938172  1.520821
Ar  11.613079  12.429128  4.055801
Ar  14.192374  14.693168  5.121809
Ar  14.164135  11.778504  7.263373
Ar  11.234618  14.306416  7.599755
Ar  12.369025  12.313977  10.469022
Ar  12.379608  15.800434  11.212227
Ar  13.580966  12.009726  13.513525
Ar  11.656726  14.718195  14.758161
108
Frame 29 box=17.158430
Ar  17.022804  0.055422  16.402174
Ar  2.171715  3.377968  15.662410
Ar  2.249858  0.565920  2.175838
Ar  16.523325  3.361546  0.662594
Ar  16.836308  0.657199  4.693286
Ar  2.542680  2.793830  6.371666
Ar  0.585550  0.957781  8.709605
Ar  17.060562  4.185061  8.717588
Ar  15.973158  16.028374  11.327960
Ar  1.126149  3.350524  11.938588
Ar  2.051436  16.889094  13.733431
Ar  15.519347  3.416775  14.592222
Ar  0.424115  6.652051  15.745036
Ar  3.723381  8.510383  15.451700
Ar  2.321721  5.887332  1.170661
Ar  0.148465  8.565398  2.542247
Ar  0.555654  4.766308  3.899730
Ar  2.454524  8.701257  5.686929
Ar  2.409119  6.228791  7.973321
Ar  16.906370  9.426371  7.742879
Ar  16.527428  6.657298  11.917590
Ar  1.886678  8.656504  10.850014
Ar  2.992193  5.831402  13.263808
Ar  0.074999  10.097087  14.220912
Ar  16.031620  11.969106  17.082556
Ar  2.694577  13.997539  17.011412
Ar  2.627838  11.506535  2.427783
Ar  16.983911  15.073377  2.434440
Ar  0.267830  12.547648  5.266873
Ar  2.274231  15.021891  5.944921
Ar  3.057548  11.658938  8.757698
Ar  16.583759  14.542552  7.961849
Ar  16.395050  12.155471  11.056385
Ar  3.020203  14.578618  10.883662
Ar  3.111832  11.453107  13.018979
Ar  0.006253  13.921928  13.984581
Ar  4.439252  0.259678  16.369676
Ar  8.404426  3.048441  16.684194
Ar  7.844468  0.762028  2.662824
Ar  4.884911  3.047082  2.758772
Ar  5.478166  0.096929  5.193531
Ar  6.367048  3.187293  7.259040
Ar  9.092053  0.508817  6.972723
Ar  4.014858  1.876325  9.617671
Ar  6.009357  16.942529  11.525601
Ar  7.135174  3.088218  10.521643
Ar  9.045067  16.489063  13.601142
Ar  5.867970  3.209454  13.635068
Ar  5.533780  5.520544  16.345358
Ar  7.685748  8.958246  15.470083
Ar  8.414772  6.270177  2.679380
Ar  4.907273  8.775814  2.210802
Ar  5.707699  6.587963  5.170821
Ar  8.161254  9.135855  5.384165
Ar  8.529923  6.367531  7.540289
Ar  5.780380  9.313642  8.322835
Ar  5.789612  6.319333  10.333479
Ar  8.735915  9.381863  10.392748
Ar  8.531657  5.427925  13.595038
Ar  5.720042  9.107336  12.601476
Ar  5.327664  11.595917  0.064320
Ar  7.036473  15.158379  16.812160
Ar  8.475682  10.452572  1.571569
Ar  4.756612  14.257769  2.815134
Ar  5.255946  11.690245  5.246428
Ar  7.981967  13.910353  4.912450
Ar  7.990922  12.033831  7.794357
Ar  5.395306  14.485688  8.003557
Ar  6.122125  12.531702  10.880703
Ar  8.705826  15.128858  9.567523
Ar  8.399832  12.417375  14.572917
Ar  4.985065  14.540862  13.826680
Ar  10.874743  16.984440  0.204339
Ar  12.834699  4.172517  0.707426
Ar  13.784900  1.026357  2.325012
Ar  10.540988  2.795174  3.695154
Ar  11.081829  16.204930  4.376045
Ar  14.597359  3.829423  5.443171
Ar  13.686027  0.305787  8.451731
Ar  10.721496  3.703591  7.420550
Ar  10.665143  2.195925  10.971313
Ar  13.960875  3.999438  10.891910
Ar  14.027989  0.079983  14.066267
Ar  11.133028  2.436023  14.607645
Ar  10.159026  6.748978  16.723157
Ar  14.165106  8.363793  16.384053
Ar  14.633186  6.608266  2.695404
Ar  11.067584  8.234477  2.900605
Ar  11.603971  6.463267  6.229051
Ar  14.105584  8.684694  5.457120
Ar  14.721923  6.636215  8.107698
Ar  11.096424  9.400215  7.979010
Ar  10.409613  5.811955  10.750991
Ar  13.399392  8.777279  10.467036
Ar  13.009267  5.722224  14.045949
Ar  11.056881  8.668642  13.045183
Ar  11.318049  11.347288  16.537131
Ar  13.437913  14.521770  1.262032
Ar  14.283352  10.595387  2.464269
Ar  9.916551  13.684731  1.914165
Ar  11.349676  11.576468  4.856703
Ar  14.192374  14.693168  5.121809
Ar  14.164135  11.778504  7.263373
Ar  11.633383  14.388549  7.702411
Ar  11.068123  12.612220  10.617755
Ar  12.009236  15.793969  11.282983
Ar  13.580966  12.009726  13.513525
Ar  11.819980  14.740540  14.977247
108
Frame 30 box=17.158430
Ar  16.691124  0.260580  0.050487
Ar  2.404558  2.880679  15.343119
Ar  2.204773  0.356497  2.182572
Ar  16.170355  3.727591  0.748850
Ar  16.836308  0.657199  4.693286
Ar  2.313518  2.791854  6.239912
Ar  0.295547  0.508268  8.772968
Ar  17.060562  4.185061  8.717588
Ar  15.378993  15.531380  10.874376
Ar  0.847869  3.053143  11.772754
Ar  1.466373  0.134303  13.675393
Ar  15.400440  3.380642  14.515045
Ar  0.354628  6.209505  15.829020
Ar  3.230187  8.422743  15.338250
Ar  2.625929  5.780882  2.429545
Ar  17.099816  8.642080  2.640152
Ar  17.126204  5.083470  4.859246
Ar  2.144096  8.911757  5.136680
Ar  2.858538  6.441167  8.159692
Ar  16.655323  9.000476  7.989817
Ar  15.891836  6.428769  12.052725
Ar  1.886678  8.656504  10.850014
Ar  2.871600  5.776883  12.917752
Ar  17.146842  9.795737  13.864638
Ar  15.632495  11.848574  16.617972
Ar  2.671288  14.319194  16.848723
Ar  2.384119  11.628991  2.392932
Ar  16.983911  15.073377  2.434440
Ar  0.540751  12.141151  5.339563
Ar  2.302281  15.726353  6.294369
Ar  2.629232  11.613425  8.884857
Ar  16.625166  14.431407  8.048723
Ar  16.616800  11.797834  10.605355
Ar  2.382831  15.147290  10.642363
Ar  3.318282  11.411936  13.093560
Ar  0.433414  13.772725  13.587929
Ar  4.617636  0.364236  16.361948
Ar  8.976718  3.332118  0.114216
Ar  7.547757  0.576523  2.035396
Ar  4.884911  3.047082  2.758772
Ar  5.355645  0.581726  5.222464
Ar  6.376436  3.121807  7.335213
Ar  10.010098  0.432858  7.405734
Ar  3.611909  2.729260  9.527784
Ar  5.893662  0.036907  11.453623
Ar  7.687471  3.019970  10.358195
Ar  8.845046  17.109279  13.701379
Ar  5.611043  2.686349  13.782647
Ar  5.211157  5.458019  15.924417
Ar  7.798307  9.310633  15.366779
Ar  8.330197  6.587648  2.957348
Ar  4.629751  8.990246  2.262242
Ar  5.616382  6.618723  4.858811
Ar  8.097499  9.550068  5.029228
Ar  8.165222  6.096238  7.059799
Ar  5.381021  9.694095  8.274977
Ar  5.767418  6.204548  10.052839
Ar  8.638256  9.973676  10.915984
Ar  8.316620  6.140245  14.085435
Ar  5.416252  8.953962  12.444911
Ar  5.340245  11.717716  0.129504
Ar  7.276239  14.830800  16.942590
Ar  8.676497  10.393465  1.717847
Ar  4.990139  15.002951  2.967293
Ar  4.730355  11.512004  5.196428
Ar  8.475665  13.835004  5.185354
Ar  8.277743  11.638484  7.888738
Ar  5.114596  14.717344  7.812732
Ar  5.709281  13.169039  10.882825
Ar  8.486342  15.130821  9.501891
Ar  9.195787  12.521297  14.359010
Ar  5.044137  14.286440  14.090322
Ar  10.701444  16.985482  0.584205
Ar  12.850676  4.506972  0.324138
Ar  13.841969  0.849828  2.599420
Ar  10.662130  2.784573  3.587219
Ar  11.011949  16.182137  4.292566
Ar  14.236521  3.145221  5.660794
Ar  13.789411  0.763386  8.063501
Ar  10.443765  3.587258  8.017223
Ar  10.756719  2.102467  11.153201
Ar  14.437101  2.663619  11.072054
Ar  14.201545  0.020791  14.003016
Ar  11.177151  1.975380  14.464689
Ar  10.340631  6.935027  16.957779
Ar  14.501631  8.247528  15.803239
Ar  14.646941  6.171163  2.653651
Ar  11.835004  8.660689  2.396090
Ar  11.476802  5.992520  5.472182
Ar  14.105584  8.684694  5.457120
Ar  13.880491  6.239728  8.122601
Ar  11.392172  9.659601  8.034639
Ar  10.376805  5.737724  10.845630
Ar  13.642140  9.730727  10.952401
Ar  12.617166  5.890598  14.194577
Ar  10.654960  8.599770  13.368875
Ar  11.637370  10.794002  16.284235
Ar  13.846713  15.029341  0.834983
Ar  14.318595  11.319864  2.690781
Ar  10.130962  13.757291  1.904452
Ar  11.027391  11.400308  5.010954
Ar  14.468860  15.191477  5.339220
Ar  14.381248  11.724602  6.823119
Ar  11.649296  14.326905  7.414904
Ar  11.539246  12.391144  10.647519
Ar  11.809273  16.007180  11.201802
Ar  13.821753  12.857630  13.232753
Ar  11.780260  14.616201  15.168301
108
Frame 31 box=17.158430
Ar  16.691124  0.260580  0.050487
Ar  2.594537  3.088351  15.041011
Ar  2.905950  0.370281  2.652635
Ar  16.039434  3.571683  1.079901
Ar  16.772442  0.753284  4.763118
Ar  2.558784  2.379529  6.205556
Ar  0.295547  0.508268  8.772968
Ar  0.002610  4.346368  8.844711
Ar  15.589278  16.313113  11.115548
Ar  0.948266  3.078205  11.965620
Ar  1.371262  16.926509  13.658717
Ar  15.638815  3.641099  14.520152
Ar  0.487263  6.582002  15.839754
Ar  3.564703  8.310800  16.105309
Ar  2.121609  5.143758  1.232798
Ar  0.101892  8.370169  2.347466
Ar  0.121020  4.989122  4.986341
Ar  2.477276  8.859011  5.292199
Ar  3.016303  5.983094  7.663795
Ar  16.655323  9.000476  7.989817
Ar  16.005481  6.627750  11.461248
Ar  1.886678  8.656504  10.850014
Ar  3.178008  5.703518  12.757291
Ar  17.069460  9.992166  13.413338
Ar  15.394656  11.139080  16.370163
Ar  2.574190  14.399737  0.014812
Ar  2.319658  11.041341  2.198262
Ar  0.048264  14.662520  2.788101
Ar  0.194233  11.477600  5.608693
Ar  2.099882  15.877697  6.059907
Ar  2.506991  11.818648  8.358512
Ar  16.477281  14.417585  7.984565
Ar  0.041078  12.185879  10.857662
Ar  2.357419  15.380116  10.143301
Ar  3.078843  11.561601  12.603043
Ar  0.313343  13.591165  14.614253
Ar  4.690186  0.327224  16.792494
Ar  9.263479  3.838616  17.092846
Ar  7.788796  0.610440  2.528838
Ar  5.165438  3.376409  2.626595
Ar  5.710036  0.520416  5.506629
Ar  6.096983  3.639576  7.068069
Ar  9.476568  0.669847  7.401583
Ar  3.962226  3.086289  9.774571
Ar  5.899993  17.021847  10.611758
Ar  7.687471  3.019970  10.358195
Ar  8.528836  16.683953  13.063682
Ar  6.335711  2.578101  13.506011
Ar  5.600527  4.843333  16.294286
Ar  7.757127  9.490487  15.690968
Ar  7.577281  6.332344  2.135703
Ar  4.738947  8.678376  2.281965
Ar  4.891833  6.065903  4.525481
Ar  8.023926  9.841787  5.075320
Ar  8.158912  6.680898  7.551550
Ar  5.350055  9.463681  8.330448
Ar  5.767418  6.204548  10.052839
Ar  8.697152  9.876824  10.852097
Ar  8.268944  5.774012  14.078201
Ar  5.726566  8.464829  12.781063
Ar  5.149317  11.534008  16.985191
Ar  7.398378  15.185417  17.005828
Ar  8.341238  10.612668  1.751524
Ar  5.198759  14.500620  2.682713
Ar  5.174145  11.735309  5.123620
Ar  8.246500  14.481091  5.759827
Ar  7.974348  11.755948  7.820606
Ar  4.984370  14.659101  7.826770
Ar  5.704930  12.918696  10.727361
Ar  8.731735  14.934197  9.416810
Ar  8.675069  12.624096  14.000544
Ar  4.450133  14.642037  13.751078
Ar  10.701444  16.985482  0.584205
Ar  13.005050  4.403028  17.152806
Ar  13.805624  0.394901  2.368977
Ar  10.329763  2.997438  3.244093
Ar  11.011949  16.182137  4.292566
Ar  13.727969  3.119785  5.421598
Ar  13.927016  0.262534  8.183002
Ar  10.678867  3.888111  7.810906
Ar  11.074160  2.107599  10.717250
Ar  14.652604  3.499909  10.940534
Ar  14.433912  0.178317  14.230865
Ar  11.141400  2.118348  14.796674
Ar  10.012374  7.309242  17.045532
Ar  13.591560  7.942912  15.936398
Ar  14.394251  6.082971  2.682353
Ar  11.835004  8.660689  2.396090
Ar  11.123868  6.178864  5.431832
Ar  13.932559  8.647751  5.627021
Ar  13.940527  5.922523  8.101423
Ar  10.511242  9.595276  7.638314
Ar  10.147455  6.876175  10.847829
Ar  13.565144  9.610612  10.805020
Ar  12.166227  5.407409  13.244092
Ar  11.201751  9.332980  13.481032
Ar  11.154094  10.742525  16.534059
Ar  13.518341  14.381699  0.845470
Ar  14.626820  11.486883  2.845901
Ar  10.136301  13.798090  1.652158
Ar  11.204732  11.890446  4.736870
Ar  14.377044  15.179434  5.347296
Ar  14.479812  11.818738  7.332463
Ar  11.810428  14.057550  7.485631
Ar  11.124881  12.219414  10.700541
Ar  11.809273  16.007180  11.201802
Ar  14.035930  12.215528  13.179562
Ar  11.741764  14.477174  14.945905
108
Frame 32 box=17.158430
Ar  17.048704  0.027269  0.865257
Ar  2.432442  3.502217  15.123762
Ar  2.891161  0.278030  2.998561
Ar  16.161001  3.585973  1.771006
Ar  16.781851  1.113520  4.254783
Ar  2.593229  2.448971  6.059930
Ar  0.163510  0.895945  8.472199
Ar  17.025189  4.633715  8.728284
Ar  15.589278  16.313113  11.115548
Ar  0.887628  2.696456  12.009536
Ar  1.174457  17.017068  13.928002
Ar  15.585984  3.711298  14.664165
Ar  0.156513  6.679888  15.722518
Ar  3.137554  8.363801  16.022313
Ar  2.641755  5.089729  1.482177
Ar  16.920118  8.889295  2.232057
Ar  0.806799  5.249117  4.552941
Ar  2.657950  9.051566  5.598877
Ar  3.107902  6.052246  7.509675
Ar  16.802874  8.558919  7.830455
Ar  16.122004  6.278594  12.138733
Ar  2.338568  8.774209  10.756038
Ar  2.939173  5.887417  12.909525
Ar  0.108670  9.751837  13.774876
Ar  15.455443  11.210411  16.627068
Ar  2.787953  14.366899  0.243214
Ar  1.968285  11.313620  1.964878
Ar  17.048271  14.002800  2.801527
Ar  17.117267  11.101867  5.004782
Ar  2.099882  15.877697  6.059907
Ar  2.539749  12.343212  8.499936
Ar  16.477281  14.417585  7.984565
Ar  16.716552  11.749676  10.719784
Ar  1.913257  15.318006  10.785754
Ar  3.052094  11.797905  12.585854
Ar  0.082760  13.380858  14.788681
Ar  5.017547  0.161475  16.750743
Ar  8.839681  3.869101  0.100911
Ar  7.934769  0.317226  2.793555
Ar  5.137105  3.044475  2.744988
Ar  5.592308  0.344000  5.601583
Ar  6.117210  3.885836  6.800851
Ar  9.089180  0.952672  6.922507
Ar  4.065796  3.281417  9.503766
Ar  5.227026  0.025099  10.928243
Ar  7.654478  3.270588  10.178472
Ar  7.910446  16.443972  13.218769
Ar  5.645963  2.783586  13.785752
Ar  5.201222  5.697281  16.165732
Ar  7.474594  9.818311  15.601876
Ar  7.473507  5.951367  2.389758
Ar  4.879002  9.305709  1.898912
Ar  4.410359  6.331638  4.195909
Ar  7.179930  9.470022  4.513380
Ar  7.922857  6.912096  6.847020
Ar  5.375843  9.520712  8.383627
Ar  5.751617  6.474906  10.188297
Ar  8.515901  10.499552  11.275792
Ar  8.351241  5.457903  13.451130
Ar  5.886557  8.595981  12.762062
Ar  4.779682  11.836338  16.599450
Ar  7.788422  14.781228  17.079819
Ar  8.564811  10.519452  1.617128
Ar  5.277172  14.954531  2.873071
Ar  5.041958  12.143223  5.109705
Ar  7.900791  14.492880  5.476417
Ar  7.860443  11.809873  7.937216
Ar  4.786367  14.790003  8.087091
Ar  5.915354  12.453384  10.719692
Ar  8.335303  15.058529  9.678892
Ar  9.500501  12.170353  14.243783
Ar  4.590498  14.858185  13.983926
Ar  11.322569  16.814056  0.124489
Ar  12.680469  4.046889  0.054221
Ar  13.623920  1.198811  2.551228
Ar  10.709471  3.272648  3.120180
Ar  11.125014  16.315132  4.715613
Ar  13.999898  3.284009  5.311783
Ar  13.656081  0.122637  7.745467
Ar  10.287584  4.225560  8.137707
Ar  10.698300  2.949635  11.253639
Ar  14.116581  2.882456  10.685303
Ar  14.535293  0.249626  14.437314
Ar  10.530865  2.251314  14.697540
Ar  9.928517  7.232806  0.022877
Ar  13.845149  8.105317  16.156511
Ar  14.431078  6.616820  2.612545
Ar  11.980813  9.112197  2.692164
Ar  11.773941  6.119464  4.806649
Ar  13.932559  8.647751  5.627021
Ar  13.402179  5.832219  8.325498
Ar  10.211379  9.148452  7.925242
Ar  10.480016  7.035383  10.813393
Ar  13.620397  9.129537  10.391607
Ar  12.846498  5.579963  12.802438
Ar  10.859194  9.066364  13.598227
Ar  11.788364  11.097282  16.949632
Ar  13.699783  14.708784  1.210655
Ar  14.042818  11.869251  3.239331
Ar  10.213699  13.512042  1.861095
Ar  10.471929  11.741942  5.106663
Ar  14.169820  14.705956  4.978581
Ar  14.062638  11.548746  7.187598
Ar  11.996891  14.360017  7.919772
Ar  11.773894  11.954639  10.177208
Ar  11.800587  16.572408  10.732151
Ar  13.778826  11.930554  13.671773
Ar  11.734369  14.804236  14.179728
108
Frame 33 box=17.158430
Ar  16.985187  16.614560  0.955575
Ar  1.964846  3.213275  15.502098
Ar  2.612938  0.327676  2.973733
Ar  16.577173  3.205372  0.823890
Ar  16.433312  0.651036  4.462193
Ar  1.643388  3.124774  4.965625
Ar  0.592032  0.767458  8.182850
Ar  0.107805  4.716478  8.349781
Ar  15.450088  16.433655  11.139869
Ar  0.781262  2.440833  12.000964
Ar  1.345616  16.793460  13.924117
Ar  15.561794  3.739728  14.372510
Ar  0.117385  6.206889  16.094133
Ar  2.947126  8.155566  15.689925
Ar  2.738684  5.248320  1.336264
Ar  16.013810  8.927569  2.199754
Ar  17.079086  6.415154  4.612358
Ar  2.617354  9.482040  5.188139
Ar  3.203411  6.442300  7.628911
Ar  16.914272  8.146094  7.770876
Ar  16.725600  6.561815  12.422813
Ar  2.401411  8.735543  10.310595
Ar  2.843675  5.895883  12.297528
Ar  0.340363  9.553198  14.422392
Ar  14.863624  11.056112  16.737517
Ar  2.746567  14.579559  0.294034
Ar  1.793747  11.360985  2.120703
Ar  0.315647  14.035218  3.536404
Ar  16.975620  11.786396  6.174071
Ar  2.440118  15.585054  5.672459
Ar  2.801053  11.959575  8.042141
Ar  16.236655  14.718726  8.102404
Ar  16.454175  12.880834  11.209888
Ar  1.928365  15.186164  10.662548
Ar  2.664416  12.116647  12.255336
Ar  0.444080  13.381023  14.842500
Ar  5.076899  0.143254  0.172731
Ar  8.600270  3.478933  0.180785
Ar  8.104087  16.953629  1.992860
Ar  5.137105  3.044475  2.744988
Ar  5.426748  0.246957  5.405727
Ar  5.413866  3.906435  6.418602
Ar  8.484276  1.101538  6.844967
Ar  3.258332  3.282858  9.403117
Ar  5.491060  16.771174  10.838797
Ar  7.191295  3.557734  9.746570
Ar  7.854737  16.504461  13.109060
Ar  5.130428  3.234491  13.153041
Ar  5.797232  6.149904  16.847507
Ar  7.679367  9.120702  15.474427
Ar  7.516125  5.703548  2.876414
Ar  4.810660  9.023020  1.588980
Ar  4.322004  6.597804  4.144337
Ar  6.868886  9.040862  4.538761
Ar  8.256069  6.407279  6.654751
Ar  5.652116  9.591423  8.665931
Ar  5.928029  6.553808  10.172275
Ar  8.815207  10.564361  10.844280
Ar  8.639528  5.347704  13.068183
Ar  5.653813  8.759979  12.545846
Ar  4.404618  11.885676  16.035273
Ar  7.655763  14.576450  15.989570
Ar  8.564811  10.519452  1.617128
Ar  6.121315  14.303186  2.360350
Ar  4.684083  12.547817  5.241609
Ar  8.426586  14.656462  5.450783
Ar  8.103054  11.682678  7.164571
Ar  5.029028  14.645385  7.947943
Ar  5.758610  12.324917  10.893680
Ar  8.546003  14.989357  9.231220
Ar  9.500501  12.170353  14.243783
Ar  4.479715  14.703301  14.006807
Ar  11.703054  17.148906  0.167745
Ar  12.559966  4.349342  16.861648
Ar  13.719414  1.785129  2.483267
Ar  10.122811  3.426861  3.643850
Ar  11.148033  16.693884  4.513688
Ar  14.414288  3.370408  5.625283
Ar  13.864963  0.432911  8.179120
Ar  10.435411  4.023573  7.901506
Ar  10.729942  2.872978  11.093967
Ar  14.454923  2.580049  10.697761
Ar  14.403455  0.614683  14.193637
Ar  10.530865  2.251314  14.697540
Ar  10.236263  6.990996  16.590616
Ar  13.990303  7.694889  16.287587
Ar  14.020117  5.456611  2.860786
Ar  11.832705  8.599798  2.277856
Ar  11.814776  6.202995  5.155440
Ar  14.009399  8.885417  5.621872
Ar  13.151026  6.075557  8.469280
Ar  10.656832  9.167261  7.703550
Ar  10.103378  7.153839  10.185822
Ar  14.158545  9.346277  10.598677
Ar  13.013070  5.645379  12.538344
Ar  10.673671  8.955757  13.559432
Ar  11.534951  10.895149  16.924328
Ar  14.307358  14.517697  0.939450
Ar  14.042818  11.869251  3.239331
Ar  9.624930  13.990202  2.450307
Ar  10.825144  11.817763  5.111451
Ar  14.512696  15.122383  5.018757
Ar  13.582806  11.813468  7.308231
Ar  11.728856  14.554731  7.564051
Ar  11.773894  11.954639  10.177208
Ar  11.865528  16.167290  10.789820
Ar  13.427503  11.324523  13.303854
Ar  11.476342  15.231997  13.983307
108
Frame 34 box=17.158430
Ar  16.685001  16.237536  0.272097
Ar  2.138179  3.187620  15.584929
Ar  2.481080  0.733163  3.050932
Ar  0.040120  3.200576  1.786426
Ar  16.433312  0.651036  4.462193
Ar  1.439602  3.162948  5.162072
Ar  0.267703  0.765355  8.329041
Ar  16.917688  4.955613  7.922628
Ar  15.555459  16.568622  11.136543
Ar  0.125456  2.772817  11.784734
Ar  0.947035  16.759041  13.860003
Ar  15.434705  3.789071  14.647915
Ar  16.853874  6.585292  16.572573
Ar  3.003729  7.865033  15.593089
Ar  3.241850  5.240512  1.058492
Ar  16.198770  9.035257  1.947454
Ar  0.498551  6.722392  3.994910
Ar  2.527190  9.493636  5.472921
Ar  3.225605  6.760072  7.934410
Ar  16.882382  8.254041  7.737894
Ar  16.504187  6.328300  12.070478
Ar  2.209613  8.819032  10.553731
Ar  2.771339  5.913840  12.337096
Ar  0.153814  9.685516  14.072875
Ar  15.481060  11.455805  16.819514
Ar  2.574956  14.391311  0.027170
Ar  1.985854  11.038688  2.453441
Ar  0.324070  14.040138  3.641842
Ar  16.584379  11.243674  5.497853
Ar  2.203570  15.289474  5.958466
Ar  2.838178  12.010301  8.692126
Ar  16.236655  14.718726  8.102404
Ar  15.646316  12.788947  10.751011
Ar  1.928365  15.186164  10.662548
Ar  2.518137  12.209982  12.556276
Ar  0.053840  13.685319  14.706098
Ar  4.658788  0.239584  16.667358
Ar  8.568713  3.421765  0.424983
Ar  8.469223  17.107487  2.039622
Ar  5.513482  2.432425  2.473125
Ar  5.426748  0.246957  5.405727
Ar  5.709528  3.969837  6.383748
Ar  8.197958  0.905525  7.494310
Ar  3.308272  3.307748  9.680844
Ar  4.949892  0.309074  10.932635
Ar  7.539955  3.363064  9.885553
Ar  8.300792  0.063393  12.729708
Ar  5.416797  2.527977  14.263532
Ar  6.024365  5.855972  16.434765
Ar  6.984198  9.140117  15.523908
Ar  8.138342  6.008341  3.131154
Ar  4.670016  9.582280  1.218862
Ar  4.434477  6.659778  3.931343
Ar  6.584082  9.417482  4.709514
Ar  7.660933  7.216082  6.963254
Ar  5.250660  9.619421  8.364522
Ar  5.933255  6.415227  10.488508
Ar  8.733128  10.623764  10.628603
Ar  8.441355  4.967925  13.382115
Ar  5.686516  9.474538  12.302462
Ar  4.304498  11.387048  15.631777
Ar  8.419178  15.217026  16.019094
Ar  8.512119  10.078651  1.498847
Ar  5.293456  15.319077  2.628089
Ar  4.652296  12.870978  5.240589
Ar  8.104413  14.979007  5.798478
Ar  8.304919  11.330372  7.115645
Ar  5.118525  14.640570  7.984350
Ar  5.734930  12.729368  10.602221
Ar  8.435823  15.136319  9.530079
Ar  8.989025  12.533364  13.944366
Ar  5.129559  14.902198  13.958387
Ar  11.296281  0.289580  17.041177
Ar  12.284730  3.928281  0.099144
Ar  13.772824  1.524051  2.293380
Ar  10.577330  3.077939  3.640458
Ar  11.276036  17.049371  4.636792
Ar  13.861412  4.095728  5.940641
Ar  13.535925  0.895430  7.854807
Ar  9.947216  3.912333  7.414576
Ar  10.485236  2.688123  11.336123
Ar  13.885050  2.238911  11.234050
Ar  14.135387  0.805976  14.560183
Ar  10.451776  2.421887  14.410010
Ar  9.628531  6.864138  16.424618
Ar  13.591025  8.418283  16.333321
Ar  14.316498  5.370063  2.471737
Ar  11.690213  8.464081  2.281795
Ar  11.210798  6.096578  5.014953
Ar  13.898287  8.759032  5.173884
Ar  13.657537  6.986505  8.224978
Ar  11.232555  9.743842  7.743569
Ar  10.073202  6.983906  9.999995
Ar  14.356177  9.349835  10.639349
Ar  13.209674  6.111242  12.094447
Ar  10.792578  8.439658  13.348111
Ar  10.989472  11.783184  0.014860
Ar  13.556782  14.539686  0.561826
Ar  14.042818  11.869251  3.239331
Ar  9.951151  14.000760  2.426812
Ar  11.047823  11.882591  5.112210
Ar  13.936952  14.807004  4.763272
Ar  13.979453  12.072804  7.428129
Ar  11.635151  14.599310  7.309235
Ar  11.752097  12.898807  10.796673
Ar  11.757214  16.626236  10.464763
Ar  13.340644  11.767987  13.786712
Ar  11.217509  15.611047  13.721528
108
Frame 35 box=17.158430
Ar  16.685001  16.237536  0.272097
Ar  1.928312  3.466120  15.733853
Ar  2.772801  0.227284  2.647534
Ar  0.296221  3.438922  1.670595
Ar  16.186242  1.155793  4.796183
Ar  2.070146  4.009315  5.212219
Ar  0.575884  0.995746  7.924869
Ar  16.923921  4.671889  8.108310
Ar  15.847373  16.331307  10.717625
Ar  0.125456  2.772817  11.784734
Ar  1.015485  0.067161  14.119654
Ar  14.885538  4.548190  14.960630
Ar  0.039442  7.189525  16.291433
Ar  3.189036  7.851571  15.059804
Ar  2.728079  5.890377  1.162028
Ar  15.783442  8.781202  2.063361
Ar  0.216149  6.599763  4.064905
Ar  2.793267  9.382300  5.650209
Ar  3.563079  7.021755  7.833896
Ar  16.749715  8.617938  7.733619
Ar  16.161673  6.247593  11.343723
Ar  2.209613  8.819032  10.553731
Ar  2.237183  5.411532  12.738666
Ar  17.090815  9.795685  13.870979
Ar  15.494898  11.748838  16.513677
Ar  2.619931  14.154692  0.448062
Ar  2.068439  11.404007  2.291567
Ar  16.902349  14.246059  2.926810
Ar  16.554977  11.783872  5.634382
Ar  2.298520  15.274520  5.461714
Ar  2.000983  11.770849  8.323952
Ar  16.529485  14.753480  7.837551
Ar  15.694614  12.751901  10.481790
Ar  1.999567  14.834857  10.402211
Ar  2.290253  11.813790  12.101738
Ar  0.011376  13.750164  14.269338
Ar  5.437836  16.892834  16.859742
Ar  8.181089  3.106049  0.380496
Ar  8.216844  0.306763  2.697083
Ar  5.445672  2.511462  2.561547
Ar  5.459626  0.257980  5.410200
Ar  6.310826  3.974619  6.299745
Ar  8.190272  0.647825  7.379248
Ar  3.640791  3.927959  9.868265
Ar  4.965872  0.455437  10.569217
Ar  7.437459  3.047197  10.103095
Ar  8.051906  0.056173  12.488885
Ar  5.388386  2.085195  14.523601
Ar  6.249942  6.335023  17.140352
Ar  8.215012  9.734907  15.099771
Ar  8.055403  6.264220  3.061485
Ar  4.743900  9.365806  1.161648
Ar  4.683663  6.522414  3.967720
Ar  6.584082  9.417482  4.709514
Ar  7.735650  7.126473  7.444725
Ar  5.135142  10.135063  8.360501
Ar  5.933255  6.415227  10.488508
Ar  8.733128  10.623764  10.628603
Ar  8.174667  4.746657  13.295062
Ar  5.618253  9.498189  12.246682
Ar  3.661608  11.313565  15.366466
Ar  8.414349  14.492190  16.142874
Ar  8.346736  9.570467  1.482600
Ar  5.639477  15.030976  2.451564
Ar  4.412179  12.298800  5.078623
Ar  8.393005  14.467118  5.380943
Ar  8.304919  11.330372  7.115645
Ar  5.336222  14.714309  7.835153
Ar  5.253959  12.779345  10.532044
Ar  8.335946  14.510977  9.639294
Ar  8.935582  12.629329  13.463433
Ar  4.354207  14.920278  13.700566
Ar  10.893846  0.111927  0.299986
Ar  12.056194  3.509127  0.028704
Ar  14.027291  1.275683  1.819219
Ar  10.246002  3.127050  3.562225
Ar  11.685703  0.231941  3.992256
Ar  14.123797  3.964737  5.739490
Ar  14.156055  1.060254  7.591654
Ar  10.376361  3.636928  7.406375
Ar  10.525392  2.295786  10.770113
Ar  13.876902  2.247162  11.108612
Ar  14.471551  0.866790  15.443898
Ar  10.734545  1.895496  14.401160
Ar  9.807400  6.881941  16.850261
Ar  13.748201  8.613947  16.277710
Ar  14.414461  5.508594  2.655223
Ar  11.738118  8.943496  2.556397
Ar  11.000069  6.160953  5.002574
Ar  13.898287  8.759032  5.173884
Ar  13.880777  6.490930  7.996606
Ar  11.061436  9.021149  7.777212
Ar  9.904886  6.516365  10.411284
Ar  13.888128  9.230366  10.919649
Ar  12.893193  5.626381  12.214160
Ar  11.268435  8.407768  13.622180
Ar  11.160756  11.617695  16.651367
Ar  13.337382  14.805873  0.582867
Ar  14.017200  11.802856  2.786568
Ar  9.750242  13.955814  2.119885
Ar  11.046584  12.017287  5.090875
Ar  14.043437  14.791306  4.817091
Ar  13.523569  11.916322  7.860529
Ar  11.635151  14.599310  7.309235
Ar  12.102725  12.595948  10.776866
Ar  11.962500  16.617317  10.199252
Ar  13.340644  11.767987  13.786712
Ar  11.265704  15.571862  13.625057
108
Frame 36 box=17.158430
Ar  16.875456  16.975819  0.422541
Ar  1.436876  3.560169  15.619134
Ar  2.534438  0.310154  2.992461
Ar  0.519487  3.020538  2.055207
Ar  16.412280  0.994078  4.896314
Ar  2.024066  3.340445  5.646477
Ar  0.811975  1.670294  8.337335
Ar  16.927456  5.046746  8.165639
Ar  16.187720  16.507993  10.713377
Ar  17.108720  2.845229  11.949728
Ar  0.634989  17.079128  14.158636
Ar  14.851978  4.275653  15.020332
Ar  16.921458  6.867664  16.568056
Ar  2.677675  7.791392  15.503487
Ar  2.576029  6.226950  1.428791
Ar  15.892544  8.916845  1.845568
Ar  0.216149  6.599763  4.064905
Ar  2.361514  9.098290  5.334858
Ar  3.822117  6.817135  8.277930
Ar  16.887666  8.772187  7.702643
Ar  16.434347  6.486707  11.289154
Ar  1.704117  8.943664  10.525114
Ar  3.303771  4.769852  12.685892
Ar  17.043725  9.510938  13.892001
Ar  15.722615  11.659833  16.805442
Ar  2.264206  14.515707  0.317739
Ar  1.846044  11.593372  2.793250
Ar  16.807432  14.399106  2.798182
Ar  16.866322  11.558989  5.374320
Ar  2.269563  14.846951  5.650569
Ar  2.030791  11.691042  8.316041
Ar  16.096998  14.917157  7.597151
Ar  16.326736  12.003724  10.396601
Ar  2.036881  14.957212  9.849563
Ar  2.297171  11.771248  12.114105
Ar  0.012393  13.639709  14.705442
Ar  5.807458  16.660722  16.774541
Ar  8.433174  3.031086  0.457622
Ar  8.459551  0.368459  2.744991
Ar  4.922504  3.496927  2.226801
Ar  5.568707  0.310909  5.030836
Ar  6.251044  3.642622  6.081065
Ar  8.034932  0.160760  7.713306
Ar  3.693353  3.477938  9.584547
Ar  4.835185  0.250891  10.689984
Ar  7.311431  3.123178  9.606555
Ar  8.051906  0.056173  12.488885
Ar  6.312211  2.222307  14.854545
Ar  7.000916  6.551993  15.994756
Ar  8.044724  9.874461  14.980721
Ar  7.646230  5.782575  2.775612
Ar  4.657825  9.790757  1.407136
Ar  4.225362  6.200636  4.329632
Ar  6.504638  9.305418  4.630356
Ar  7.643762  7.237412  7.111484
Ar  5.306024  10.748196  8.179697
Ar  5.965974  5.994017  10.710125
Ar  8.465984  9.823454  10.199750
Ar  8.409217  4.339764  13.283762
Ar  5.600501  9.925891  12.441136
Ar  3.741630  11.345663  15.614681
Ar  8.213272  14.043424  16.290283
Ar  8.346736  9.570467  1.482600
Ar  5.639477  15.030976  2.451564
Ar  4.397652  12.090156  5.016596
Ar  8.024593  14.985568  5.248428
Ar  8.377242  11.702488  6.844283
Ar  5.088084  14.840833  7.677278
Ar  5.703920  13.517299  11.293529
Ar  8.838671  14.207239  9.313153
Ar  9.232112  12.812398  13.299421
Ar  3.869563  14.697083  14.302911
Ar  11.064511  0.356156  0.388137
Ar  11.617803  4.361296  0.375734
Ar  13.846970  1.904242  2.344420
Ar  10.153815  3.515008  3.650896
Ar  11.728772  0.126733  4.227802
Ar  14.378286  4.041296  5.614772
Ar  13.977593  0.943778  8.105292
Ar  11.003960  3.733396  7.447800
Ar  10.374064  2.281956  10.624953
Ar  13.876902  2.247162  11.108612
Ar  14.191862  0.815233  15.094326
Ar  10.612150  1.568594  14.167639
Ar  10.389549  7.203564  16.326517
Ar  13.926887  8.801619  16.143455
Ar  14.265600  5.368778  2.256400
Ar  11.783973  8.747194  1.779108
Ar  10.640156  6.888918  5.235625
Ar  13.982725  8.726359  5.434782
Ar  13.894209  6.524981  8.802052
Ar  11.528922  8.921921  8.365468
Ar  9.518056  6.377858  10.575506
Ar  13.869447  9.016589  11.033132
Ar  12.410262  5.326959  12.254552
Ar  10.861945  8.495521  13.232096
Ar  10.823658  11.196399  16.591891
Ar  13.727502  15.306846  0.434972
Ar  14.259281  12.031476  2.924040
Ar  10.297081  14.698181  2.170571
Ar  10.609155  11.436431  4.055855
Ar  14.043437  14.791306  4.817091
Ar  13.987432  11.677743  7.479932
Ar  11.514451  14.197851  7.129519
Ar  11.898092  12.818191  10.821842
Ar  11.510493  16.412714  10.166675
Ar  13.439038  12.192067  14.120196
Ar  12.126671  15.553740  13.427778
108
Frame 37 box=17.158430
Ar  16.477501  16.980757  0.463867
Ar  2.227894  4.131902  16.032353
Ar  2.998762  0.272347  2.771713
Ar  0.932316  3.159729  2.377795
Ar  16.309914  0.663483  4.723084
Ar  2.593801  3.296582  5.832957
Ar  0.435516  1.355784  8.387917
Ar  17.155899  4.954503  8.242954
Ar  15.851732  16.169155  11.618975
Ar  0.212930  3.090204  11.663205
Ar  0.801095  0.801521  14.294016
Ar  15.834699  3.820891  14.435432
Ar  0.028545  7.076506  16.047436
Ar  2.882576  7.930392  14.507786
Ar  3.010058  6.469130  1.467760
Ar  16.344420  9.042963  2.065048
Ar  0.434924  5.970766  4.731184
Ar  2.592849  9.279086  5.637734
Ar  4.032267  6.810524  8.495699
Ar  16.593219  8.854024  7.736305
Ar  16.505228  6.449762  11.686766
Ar  1.709265  8.989687  10.415607
Ar  4.142905  4.676716  12.958919
Ar  16.902832  9.591813  13.476304
Ar  15.424630  11.679948  16.873747
Ar  2.776194  15.265790  0.098109
Ar  1.820909  11.809195  2.265404
Ar  16.851625  14.393026  2.766524
Ar  16.866322  11.558989  5.374320
Ar  2.457165  15.202589  5.880126
Ar  1.938666  11.658306  8.272822
Ar  16.470508  14.717001  7.480250
Ar  16.142878  11.947387  9.916487
Ar  2.355824  15.208625  10.548837
Ar  2.577888  11.983531  11.999243
Ar  0.353639  13.783030  14.105079
Ar  6.067329  16.909464  16.586277
Ar  8.433174  3.031086  0.457622
Ar  8.257280  0.096570  2.789431
Ar  4.933584  3.553608  2.267232
Ar  5.391836  0.567029  5.585109
Ar  6.155058  3.960935  6.481810
Ar  8.841935  0.625645  7.741009
Ar  3.499252  3.523719  9.923785
Ar  5.061643  0.170937  11.109813
Ar  7.245107  2.983115  9.814713
Ar  7.973364  16.480046  12.593759
Ar  6.017679  2.676705  15.014514
Ar  5.844136  6.178448  16.417830
Ar  7.132237  9.866763  14.907088
Ar  7.467762  5.730094  2.905451
Ar  4.402810  9.779416  1.497095
Ar  4.377717  6.513990  4.497041
Ar  6.372064  9.151840  4.426921
Ar  7.520753  7.223098  7.178742
Ar  5.411706  11.078752  8.352647
Ar  6.200928  6.099053  10.812848
Ar  8.465984  9.823454  10.199750
Ar  8.813728  4.391117  13.270303
Ar  5.334938  9.610246  11.860558
Ar  4.158769  11.765024  15.484474
Ar  8.360367  14.025878  16.473005
Ar  8.157759  10.047474  1.577075
Ar  5.494296  14.291248  2.359077
Ar  4.498743  12.339427  5.060518
Ar  7.974709  14.611194  5.001709
Ar  8.371984  11.428117  6.376530
Ar  5.208357  15.190952  8.233736
Ar  5.733002  13.474898  11.604527
Ar  8.438788  13.997753  9.231615
Ar  8.733029  12.778337  13.292518
Ar  3.931415  15.421153  13.826698
Ar  10.979357  0.350284  0.173659
Ar  11.438236  4.286591  0.463461
Ar  13.659409  1.861942  2.385878
Ar  10.304394  3.741277  4.444997
Ar  11.487430  0.037096  4.643067
Ar  14.421151  3.777524  5.181470
Ar  14.067221  0.524349  7.518437
Ar  10.985329  5.041239  7.730876
Ar  10.559995  2.520383  10.458735
Ar  13.954111  1.921888  10.941658
Ar  14.191862  0.815233  15.094326
Ar  10.417409  1.636037  14.226141
Ar  10.035391  7.154250  16.686492
Ar  13.807207  8.086308  15.531442
Ar  14.860668  5.384608  1.669993
Ar  12.425103  8.585341  2.069205
Ar  10.205019  8.068799  4.682758
Ar  14.095630  8.665660  4.927829
Ar  13.996744  6.332888  9.145732
Ar  11.553376  8.857070  8.778136
Ar  9.684811  6.473502  10.633548
Ar  14.307425  8.982347  10.901756
Ar  12.295896  5.630606  13.339171
Ar  10.767657  9.032759  12.865560
Ar  10.983229  10.617574  16.627530
Ar  13.727502  15.306846  0.434972
Ar  14.228591  12.045591  3.088296
Ar  10.850350  14.331360  2.152144
Ar  11.231602  11.321659  4.464260
Ar  14.005109  15.012909  4.800080
Ar  13.532414  11.467768  7.490756
Ar  10.736650  14.016000  6.803614
Ar  11.604180  12.179220  10.970019
Ar  11.867875  15.934427  10.216578
Ar  13.626004  12.763587  13.734856
Ar  11.709825  15.683721  13.708792
108
Frame 38 box=17.158430
Ar  0.063271  0.418993  0.637652
Ar  2.270195  3.819417  16.652016
Ar  2.994395  0.456639  3.033991
Ar  0.441319  3.115842  2.325654
Ar  16.464787  0.433232  4.880454
Ar  2.860916  3.515121  5.776991
Ar  0.537803  0.924705  8.373383
Ar  0.246290  6.134585  8.397760
Ar  15.174816  15.370293  11.798837
Ar  0.212930  3.090204  11.663205
Ar  0.621401  0.539890  14.354272
Ar  15.469378  4.077975  14.602188
Ar  0.244691  7.078203  16.221705
Ar  2.837357  7.861233  13.764034
Ar  3.010058  6.469130  1.467760
Ar  16.546898  8.828880  1.865011
Ar  0.012453  6.223803  3.860146
Ar  2.456767  9.352648  5.336785
Ar  3.974586  6.988784  8.310644
Ar  15.920730  9.016013  8.163986
Ar  16.800860  6.642861  11.859026
Ar  1.732585  8.881095  10.326258
Ar  3.429313  4.196118  12.857752
Ar  16.710577  10.067763  13.277946
Ar  15.454905  11.241473  16.641278
Ar  2.675304  15.061430  0.344810
Ar  1.886911  11.766708  2.074675
Ar  16.951777  14.675200  2.585428
Ar  17.116779  11.775469  5.372639
Ar  2.223248  15.228539  5.671968
Ar  2.245115  11.707466  8.241420
Ar  16.241303  14.695290  7.081398
Ar  15.935553  12.182026  9.931812
Ar  1.559159  15.008457  10.367092
Ar  2.417022  12.288074  12.184311
Ar  0.532787  13.711134  15.089405
Ar  5.967834  16.729497  16.372279
Ar  8.083808  3.416771  0.021678
Ar  8.187025  0.529700  2.830769
Ar  5.146684  3.493575  2.288001
Ar  5.391836  0.567029  5.585109
Ar  6.576089  4.576604  6.358477
Ar  9.285081  0.932157  7.887799
Ar  3.778528  3.081723  9.200021
Ar  5.000691  0.774941  11.511337
Ar  7.278520  2.797903  10.114913
Ar  8.015792  15.836922  12.447620
Ar  6.085240  2.332428  14.540427
Ar  5.715656  5.732318  15.793333
Ar  7.747309  9.359615  15.040952
Ar  7.950259  6.161091  2.427851
Ar  4.402810  9.779416  1.497095
Ar  4.377717  6.513990  4.497041
Ar  6.506740  9.502485  4.142135
Ar  7.767451  7.579907  7.176603
Ar  5.630470  11.337019  8.580935
Ar  6.200928  6.099053  10.812848
Ar  8.282284  9.774525  10.227281
Ar  8.448364  4.615817  13.743046
Ar  5.457379  9.556072  12.064358
Ar  4.990759  12.361177  15.416156
Ar  9.131456  13.990851  16.433367
Ar  8.461039  11.447845  1.942053
Ar  5.559198  14.487821  2.425949
Ar  4.417436  12.249203  5.391056
Ar  7.453056  14.711308  5.564396
Ar  8.371984  11.428117  6.376530
Ar  5.208357  15.190952  8.233736
Ar  5.792090  13.293493  11.489361
Ar  8.283908  14.077648  9.201908
Ar  9.380644  12.431017  13.361629
Ar  3.663567  15.849933  13.918524
Ar  10.594256  0.107278  17.080502
Ar  11.957662  4.178455  17.108727
Ar  13.901722  1.743603  1.774665
Ar  10.142134  3.479257  4.195096
Ar  11.692992  0.262520  4.581787
Ar  13.683065  4.275214  4.934664
Ar  14.345659  0.487851  7.706729
Ar  10.830859  5.422123  7.153329
Ar  10.610363  2.117630  10.852289
Ar  14.148310  2.325391  10.837289
Ar  14.119523  0.900581  14.620879
Ar  10.711272  2.439742  14.539974
Ar  9.633483  6.958087  16.539876
Ar  13.407479  8.376959  15.249936
Ar  15.069237  5.577520  1.239450
Ar  12.652593  8.544263  1.806831
Ar  10.447938  7.818737  4.830110
Ar  14.311618  8.503111  5.203943
Ar  13.610741  5.811633  9.275419
Ar  11.553376  8.857070  8.778136
Ar  9.825244  6.264270  10.290222
Ar  14.103411  8.950596  11.315755
Ar  12.722560  5.286720  12.617224
Ar  10.637246  8.725032  13.040124
Ar  11.048364  10.938677  16.324948
Ar  14.330868  15.184033  0.370297
Ar  14.024211  11.648441  2.635657
Ar  10.058190  14.813387  2.559362
Ar  11.183080  11.428482  4.489423
Ar  13.658091  14.668139  4.158218
Ar  13.757216  11.702660  6.643509
Ar  11.040633  14.079049  6.820891
Ar  12.029138  11.975849  10.394640
Ar  11.867875  15.934427  10.216578
Ar  13.626004  12.763587  13.734856
Ar  11.709825  15.683721  13.708792
108
Frame 39 box=17.158430
Ar  17.089351  17.100167  0.199009
Ar  2.315077  3.114912  16.589250
Ar  3.393242  0.797041  2.558976
Ar  0.175754  2.875631  2.616715
Ar  16.070227  0.197262  4.991035
Ar  2.261780  2.810628  5.721408
Ar  0.716082  0.846500  8.446124
Ar  0.192113  5.899529  8.500590
Ar  15.212394  16.085416  11.649145
Ar  0.456061  2.980439  11.345384
Ar  0.522777  0.617885  13.949399
Ar  15.221729  4.308181  15.230798
Ar  0.122059  7.289764  16.232536
Ar  3.030500  7.466776  13.937776
Ar  2.787359  6.283580  1.249759
Ar  0.003474  8.779832  2.244367
Ar  0.103428  5.944622  4.187320
Ar  2.168468  9.453397  4.779414
Ar  4.247879  6.466567  8.557798
Ar  15.920730  9.016013  8.163986
Ar  0.126157  6.685292  12.350320
Ar  1.903434  8.699938  10.127441
Ar  3.429313  4.196118  12.857752
Ar  16.927805  10.294256  12.982998
Ar  15.493353  10.708497  16.458267
Ar  2.675304  15.061430  0.344810
Ar  1.856403  11.740617  1.405533
Ar  16.846123  13.897999  2.655754
Ar  17.116779  11.775469  5.372639
Ar  2.738846  15.677057  5.612265
Ar  2.245115  11.707466  8.241420
Ar  16.368166  14.620767  7.308533
Ar  16.455168  12.277777  10.005629
Ar  1.858021  14.932697  10.031624
Ar  2.369132  11.985614  11.817822
Ar  0.906196  13.085088  14.795154
Ar  5.982237  16.864340  16.626621
Ar  7.976362  3.276440  0.106607
Ar  7.736588  0.439080  2.727291
Ar  5.151129  3.946184  2.549961
Ar  5.656930  0.835651  5.840124
Ar  6.272305  4.029537  6.475449
Ar  8.797963  0.497354  7.217792
Ar  3.313020  3.208891  9.273260
Ar  4.525716  0.441323  10.995328
Ar  7.045240  2.892165  10.154372
Ar  7.857301  16.480790  12.437847
Ar  6.402475  2.278037  14.075048
Ar  5.881701  5.833661  15.753788
Ar  7.977955  9.445714  14.576609
Ar  8.145551  6.195203  2.439841
Ar  4.775641  9.889809  0.512582
Ar  4.076553  6.240432  4.782314
Ar  6.994122  9.115007  4.428361
Ar  7.963199  7.570574  7.615935
Ar  5.708094  11.441295  8.884810
Ar  6.687575  6.251397  11.047944
Ar  8.079829  9.291157  10.524119
Ar  8.746984  4.927126  13.902052
Ar  4.987201  10.080230  12.707871
Ar  5.796346  12.634185  15.357701
Ar  9.431539  14.072681  16.938591
Ar  7.955659  11.400661  1.959894
Ar  5.961634  14.639578  2.014672
Ar  4.420193  11.853888  5.340580
Ar  7.347231  14.453888  5.644470
Ar  8.639443  11.618587  6.834662
Ar  5.077007  15.049176  8.394458
Ar  5.430019  13.476647  11.749239
Ar  8.923526  14.223802  9.493572
Ar  9.343937  12.432795  13.128609
Ar  3.663567  15.849933  13.918524
Ar  10.863739  0.162019  0.623406
Ar  11.772418  3.680734  16.950909
Ar  13.965850  1.670767  2.382902
Ar  10.142134  3.479257  4.195096
Ar  11.331747  0.075252  4.752555
Ar  14.022088  4.178775  5.721556
Ar  13.781142  0.001911  7.345285
Ar  10.830859  5.422123  7.153329
Ar  10.921963  2.503268  10.323138
Ar  14.102760  1.975030  11.593413
Ar  14.121734  0.828642  14.749276
Ar  10.735074  1.972672  14.112355
Ar  10.091450  7.065131  16.279949
Ar  13.772035  8.253690  14.745433
Ar  15.015176  5.464424  1.262792
Ar  12.685366  8.106791  1.253824
Ar  10.566307  7.946249  4.379697
Ar  14.264148  8.756046  4.796263
Ar  13.762658  5.259522  9.552860
Ar  11.282324  8.860315  8.480902
Ar  10.085730  6.483744  10.877753
Ar  13.957042  8.661025  10.998106
Ar  12.781499  5.473526  12.979116
Ar  11.007594  9.251323  12.766772
Ar  11.690828  11.133816  16.349630
Ar  13.953514  15.033198  0.821930
Ar  13.953641  11.575661  2.393791
Ar  9.739891  14.595603  3.028432
Ar  11.183080  11.428482  4.489423
Ar  13.495805  14.246133  4.442096
Ar  13.659366  11.626350  7.062316
Ar  10.938529  14.491506  6.779489
Ar  11.991978  12.103568  10.534887
Ar  11.867875  15.934427  10.216578
Ar  14.410959  13.507627  14.130909
Ar  11.517407  15.112112  13.893968
108
Frame 40 box=17.158430
Ar  0.295886  16.797537  0.325171
Ar  2.705311  3.320192  16.663669
Ar  3.734509  0.629814  2.283621
Ar  0.466358  2.602863  2.796362
Ar  16.410550  17.003674  4.311408
Ar  2.044326  2.985177  5.867155
Ar  0.726729  0.545130  8.244773
Ar  0.607434  5.606744  8.809888
Ar  15.160925  15.725550  11.331284
Ar  0.371500  2.904310  11.344209
Ar  0.738513  0.516422  13.846176
Ar  15.884209  4.114437  14.820164
Ar  0.086088  7.352903  16.249171
Ar  3.099420  7.447886  14.272531
Ar  2.488070  6.256367  1.250422
Ar  16.733506  8.947801  2.292404
Ar  0.101273  6.215137  4.764453
Ar  2.168468  9.453397  4.779414
Ar  4.572519  7.587564  8.354447
Ar  16.864602  8.700851  7.734559
Ar  15.947297  6.915614  12.512139
Ar  1.830149  8.728035  10.533675
Ar  3.204103  4.328100  12.654042
Ar  0.506111  9.874322  13.730343
Ar  15.493353  10.708497  16.458267
Ar  3.286865  14.897471  0.065651
Ar  1.787735  11.453081  1.563382
Ar  16.478967  14.154426  2.440965
Ar  16.677680  11.781957  5.140276
Ar  2.448922  15.803903  5.718050
Ar  2.351911  11.374960  8.172945
Ar  16.368166  14.620767  7.308533
Ar  16.072478  12.027398  10.568024
Ar  1.816979  14.856134  10.079634
Ar  2.369132  11.985614  11.817822
Ar  0.470083  13.281504  15.263243
Ar  6.744630  16.824396  16.626049
Ar  7.976362  3.276440  0.106607
Ar  7.786603  0.357945  3.023604
Ar  5.466973  3.547468  2.555164
Ar  5.656930  0.835651  5.840124
Ar  5.832831  4.451880  6.345198
Ar  9.331620  0.800087  7.140515
Ar  3.313020  3.208891  9.273260
Ar  4.479092  0.157721  10.709747
Ar  6.982565  2.220266  9.936530
Ar  7.956236  16.716348  12.598697
Ar  6.019706  2.411070  14.168139
Ar  5.813331  5.929965  16.255901
Ar  7.346001  9.201896  14.757186
Ar  7.768392  6.286549  2.846891
Ar  4.940920  8.737770  1.082486
Ar  4.461874  6.868170  4.583904
Ar  7.231068  9.333539  4.068369
Ar  8.232819  7.668655  7.503921
Ar  5.708094  11.441295  8.884810
Ar  6.232301  6.507689  11.106703
Ar  8.518333  9.883938  10.345350
Ar  8.422483  5.227750  14.183666
Ar  4.957571  9.935165  12.629959
Ar  5.466939  12.406928  15.555287
Ar  8.766357  14.008505  16.169856
Ar  7.964964  11.064392  1.200689
Ar  6.157481  14.090716  1.902226
Ar  4.157441  12.657395  4.845497
Ar  7.259249  14.929504  5.415035
Ar  8.915748  11.106255  7.053915
Ar  5.003036  14.790292  8.237755
Ar  5.632640  13.683108  11.579929
Ar  8.870385  14.043576  9.763193
Ar  8.721801  12.880079  12.928578
Ar  3.582466  15.689956  13.697442
Ar  10.561594  0.808871  1.229287
Ar  11.493217  3.797622  16.630681
Ar  14.402109  1.640478  1.599511
Ar  9.352286  3.308901  4.162373
Ar  11.888246  0.574382  4.610888
Ar  14.958726  3.409743  6.803999
Ar  13.816706  0.233565  7.615500
Ar  11.064087  4.990510  7.407128
Ar  10.654973  2.733907  10.355646
Ar  13.979581  1.940820  11.272937
Ar  13.854153  0.417079  14.595806
Ar  10.507335  1.634325  14.163668
Ar  9.959649  6.929137  0.082963
Ar  13.772035  8.253690  14.745433
Ar  14.654418  5.379238  1.032128
Ar  13.279250  8.560894  1.191180
Ar  10.736375  7.603398  4.783395
Ar  14.264148  8.756046  4.796263
Ar  13.698464  5.282374  9.700371
Ar  11.585685  9.101210  8.153885
Ar  10.037981  6.090327  10.636527
Ar  13.921547  9.322177  10.575750
Ar  12.482370  5.217462  13.396753
Ar  10.684958  8.881567  13.270420
Ar  11.476126  11.087308  15.966659
Ar  13.183608  15.341655  1.314748
Ar  13.954091  11.819823  2.338643
Ar  9.774563  14.487450  3.055843
Ar  11.085844  11.257709  4.406074
Ar  13.520157  14.293228  4.771822
Ar  14.013707  11.558601  7.507080
Ar  11.119442  14.668245  7.323162
Ar  12.335995  12.296849  10.697032
Ar  11.714027  16.349599  10.662982
Ar  14.392026  13.062884  13.711032
Ar  11.668561  15.290059  14.620502
108
Frame 41 box=17.158430
Ar  17.011025  17.107986  0.185638
Ar  2.825280  2.740016  16.657036
Ar  3.550716  0.832887  2.339660
Ar  0.611456  3.308881  2.527068
Ar  16.245866  0.382555  4.541995
Ar  2.479649  2.853339  5.799350
Ar  0.283748  0.597615  8.202360
Ar  0.219982  5.084868  8.441437
Ar  15.386112  15.788004  10.857170
Ar  0.379028  2.702216  11.119161
Ar  1.205995  0.486767  13.887388
Ar  15.621422  3.206083  14.656194
Ar  17.041257  7.360910  16.053269
Ar  3.346227  7.886331  14.271660
Ar  2.746322  6.234755  1.283493
Ar  16.733506  8.947801  2.292404
Ar  0.175649  5.801417  4.995245
Ar  2.168468  9.453397  4.779414
Ar  4.441107  7.158901  7.973739
Ar  16.892063  8.589503  7.240953
Ar  15.985282  6.432366  12.454648
Ar  1.881824  8.285651  10.327955
Ar  3.531255  4.950372  12.341170
Ar  0.506111  9.874322  13.730343
Ar  15.571266  10.793726  16.663373
Ar  2.837908  15.016895  0.417509
Ar  2.235360  11.584504  1.485235
Ar  17.001369  14.033646  2.070255
Ar  16.677680  11.781957  5.140276
Ar  2.772454  15.652131  5.010962
Ar  1.828772  11.628306  7.758516
Ar  16.654465  14.370721  7.548854
Ar  15.857951  11.811678  10.460595
Ar  1.686749  15.073207  10.466098
Ar  2.372145  12.082133  12.194616
Ar  0.506321  13.771974  15.021094
Ar  6.278351  16.973656  16.596580
Ar  7.976362  3.276440  0.106607
Ar  7.175093  0.946378  2.768404
Ar  5.364612  3.792990  2.727646
Ar  5.286984  0.435992  6.190068
Ar  6.625355  4.285897  5.709764
Ar  9.558402  1.059293  7.454321
Ar  3.661661  3.873340  8.981371
Ar  4.334276  0.419793  10.606485
Ar  6.712802  3.024240  10.156072
Ar  7.957537  16.879400  11.971459
Ar  5.573652  2.208772  13.788029
Ar  5.735682  5.695339  15.999652
Ar  7.149638  8.800975  15.471480
Ar  8.059879  6.445822  2.498647
Ar  5.275204  8.861812  1.540211
Ar  4.224995  6.761003  4.471629
Ar  7.187893  9.310797  4.317823
Ar  7.903187  7.343379  7.955568
Ar  5.774493  11.319058  8.432225
Ar  6.353853  7.098915  11.488979
Ar  8.518333  9.883938  10.345350
Ar  8.293975  5.139454  13.631349
Ar  5.066707  10.212238  12.323649
Ar  4.992490  11.988564  15.565806
Ar  8.269194  14.074334  16.302941
Ar  7.964964  11.064392  1.200689
Ar  5.887680  13.912620  2.141710
Ar  4.661375  11.907317  4.777930
Ar  7.910110  14.771930  6.035509
Ar  9.373288  11.075101  6.852194
Ar  5.064339  14.912449  8.429031
Ar  5.726241  13.632817  12.026837
Ar  8.709575  13.915398  9.762928
Ar  8.875580  12.310524  13.490311
Ar  3.565993  15.068764  14.152056
Ar  10.512269  0.794546  1.261174
Ar  11.645559  3.771797  16.767540
Ar  14.249400  1.870854  0.928408
Ar  9.852029  3.021190  3.924565
Ar  12.217227  0.721209  4.584937
Ar  13.869934  3.571277  6.030934
Ar  13.979646  17.090504  7.602009
Ar  10.896314  4.804211  7.920889
Ar  10.150912  3.000760  10.909115
Ar  14.143241  2.087919  11.438862
Ar  14.298542  0.120996  14.767811
Ar  9.525852  1.454588  14.540522
Ar  10.065740  6.884547  16.638633
Ar  13.574505  8.147471  15.128370
Ar  14.920173  5.305109  1.008423
Ar  12.501005  8.927563  1.205711
Ar  11.077450  7.315493  4.042608
Ar  14.147064  9.139261  5.250374
Ar  13.773810  5.028543  9.991971
Ar  11.344380  8.567129  7.749332
Ar  10.026859  6.363276  10.697468
Ar  13.625366  8.514919  10.188906
Ar  12.206996  4.860752  13.371831
Ar  10.684958  8.881567  13.270420
Ar  11.737062  12.079134  16.236370
Ar  13.449113  15.377573  0.790002
Ar  14.143016  11.732493  2.654870
Ar  10.478706  14.757512  2.820797
Ar  10.626255  11.015103  3.525974
Ar  13.520157  14.293228  4.771822
Ar  13.742767  11.797214  7.544416
Ar  11.251416  14.656900  7.084390
Ar  12.336338  12.752397  10.629843
Ar  11.170507  16.615071  10.227565
Ar  14.410596  13.255029  14.125996
Ar  11.298446  15.230784  14.724828
108
Frame 42 box=17.158430
Ar  16.896718  16.848533  17.142563
Ar  2.804980  2.493491  16.556510
Ar  3.549645  0.332287  3.041058
Ar  1.534904  3.660791  2.692508
Ar  16.471895  0.735153  4.288541
Ar  3.087596  2.959415  5.668696
Ar  1.105492  0.430592  7.409349
Ar  0.272585  5.159155  8.555211
Ar  15.525813  15.296604  11.075201
Ar  0.708085  3.027188  11.356196
Ar  0.907564  0.377847  13.952742
Ar  15.440117  3.660654  14.573771
Ar  17.043663  7.358841  16.075808
Ar  3.608201  8.051581  14.839654
Ar  2.272591  7.222411  1.576845
Ar  16.097431  8.779457  2.606957
Ar  0.255966  6.058540  4.622612
Ar  1.867536  9.525970  4.705143
Ar  4.441107  7.158901  7.973739
Ar  17.064733  8.181353  7.209480
Ar  16.020868  6.899353  12.268348
Ar  2.180656  8.547600  10.494467
Ar  3.531255  4.950372  12.341170
Ar  0.388271  9.945453  14.004938
Ar  16.028475  11.867151  0.009777
Ar  3.138064  15.076698  0.648668
Ar  2.471612  11.548029  1.489558
Ar  0.071471  14.267904  2.395610
Ar  16.582225  11.886983  5.009331
Ar  2.530746  14.969787  5.120718
Ar  2.418626  11.358326  8.159003
Ar  16.654465  14.370721  7.548854
Ar  16.288440  11.585875  9.994041
Ar  1.595755  15.133416  10.267077
Ar  2.449255  12.305342  12.132488
Ar  1.105236  13.497300  15.067869
Ar  5.753491  17.118990  17.085961
Ar  7.784242  3.057884  0.189012
Ar  7.312579  1.478935  3.180274
Ar  4.944871  4.134376  2.725446
Ar  5.781756  0.767580  6.474296
Ar  7.020368  4.531481  5.906129
Ar  9.558402  1.059293  7.454321
Ar  3.711287  3.838308  9.015298
Ar  3.841410  0.730678  10.658059
Ar  6.605173  3.116046  10.617332
Ar  7.724191  17.084377  11.561572
Ar  6.284540  2.334805  14.049951
Ar  5.273030  5.505235  16.391559
Ar  6.971055  8.361643  14.826092
Ar  7.662250  6.546045  2.301469
Ar  5.275204  8.861812  1.540211
Ar  4.400053  7.210815  4.519012
Ar  7.222372  9.554894  4.152584
Ar  7.903187  7.343379  7.955568
Ar  5.644130  10.468457  8.114477
Ar  6.663313  6.691749  11.191443
Ar  8.733051  9.733690  10.995216
Ar  8.269422  5.260994  13.907759
Ar  5.244710  9.854720  12.085187
Ar  5.129665  11.271367  15.960298
Ar  8.291861  14.349819  16.156993
Ar  8.322539  11.148803  0.857305
Ar  6.403148  14.321956  2.299403
Ar  4.762953  12.012236  5.046282
Ar  7.910110  14.771930  6.035509
Ar  8.803442  11.387994  7.433002
Ar  5.064339  14.912449  8.429031
Ar  5.910169  13.881312  12.052651
Ar  8.859634  13.890876  10.033593
Ar  9.011297  12.144628  13.886694
Ar  3.734741  15.891657  14.017277
Ar  10.468767  0.678879  1.096627
Ar  11.645559  3.771797  16.767540
Ar  14.116599  1.793110  0.723782
Ar  10.198704  2.983991  4.077835
Ar  12.204527  0.018267  4.752731
Ar  14.357322  3.216007  5.257575
Ar  13.979646  17.090504  7.602009
Ar  10.568885  4.596858  7.591347
Ar  9.828303  2.934708  10.780577
Ar  13.886008  1.720326  11.112243
Ar  14.014931  0.309777  14.158010
Ar  9.799258  1.262263  14.186159
Ar  9.945706  6.804535  16.952514
Ar  13.955668  7.718188  14.816240
Ar  15.461725  5.214740  1.529528
Ar  13.185994  8.922885  0.805422
Ar  10.772014  6.964591  3.947294
Ar  14.210509  8.786232  5.285620
Ar  13.701031  4.854387  9.740883
Ar  11.277853  8.470095  7.719414
Ar  10.026859  6.363276  10.697468
Ar  13.299158  8.373882  10.516267
Ar  12.206996  4.860752  13.371831
Ar  10.649374  8.142499  13.522015
Ar  12.205952  11.982588  16.560921
Ar  13.527393  15.276130  1.126700
Ar  13.708806  12.043396  2.448642
Ar  9.838606  14.530046  3.099299
Ar  10.781245  10.444598  3.669573
Ar  14.143947  14.355170  5.005381
Ar  13.867395  11.676250  7.279746
Ar  11.263403  14.419138  7.288053
Ar  12.284131  12.371220  10.894903
Ar  11.544481  16.401848  10.484633
Ar  14.938271  13.062643  13.352805
Ar  11.784024  14.904710  14.536436
108
Frame 43 box=17.158430
Ar  16.888849  16.511685  0.343346
Ar  2.692727  1.899100  16.668010
Ar  3.940015  0.657051  2.893540
Ar  1.195088  3.782877  1.934261
Ar  16.405475  0.317338  4.024205
Ar  2.883982  2.911387  5.714451
Ar  0.499877  0.373991  7.400651
Ar  0.506021  4.973233  8.475900
Ar  15.525005  15.558572  11.558861
Ar  0.351396  2.201218  10.887185
Ar  0.941531  0.853466  14.078908
Ar  15.664854  3.645535  15.322089
Ar  17.087997  7.219154  15.891137
Ar  3.219826  8.959450  15.205667
Ar  2.021179  7.503121  1.741052
Ar  16.068695  9.627976  2.439409
Ar  16.892948  6.060860  4.636578
Ar  2.568084  10.415002  4.375939
Ar  4.441107  7.158901  7.973739
Ar  16.882030  8.823442  7.310878
Ar  15.997263  6.096276  12.307992
Ar  2.406593  8.048355  10.767574
Ar  2.169857  4.856877  12.471894
Ar  16.930941  10.035564  13.745667
Ar  15.601521  11.552183  16.782490
Ar  3.207891  15.117272  0.567768
Ar  1.853246  10.965989  0.907420
Ar  17.015590  14.088403  2.716167
Ar  16.787521  11.733047  5.272049
Ar  2.684147  14.261664  4.776956
Ar  2.347059  12.202653  7.935533
Ar  16.654465  14.370721  7.548854
Ar  16.430113  11.762360  10.174804
Ar  1.523169  15.093645  10.563241
Ar  2.315312  11.943795  12.172520
Ar  0.613448  13.852772  15.270070
Ar  6.079299  16.805468  16.869395
Ar  7.990436  2.778855  16.961433
Ar  7.718945  1.033744  3.426739
Ar  4.944871  4.134376  2.725446
Ar  5.615330  0.767207  6.373185
Ar  7.228983  4.069292  5.874374
Ar  9.620072  1.000043  7.663868
Ar  3.806197  4.120152  9.333394
Ar  4.726145  17.130944  11.168730
Ar  6.896156  3.001775  10.335661
Ar  8.169987  16.950424  11.775702
Ar  5.843643  1.818117  13.962603
Ar  5.216479  5.506453  16.607931
Ar  7.141793  8.574052  14.779339
Ar  7.847297  6.127402  2.650152
Ar  5.501038  8.817099  1.180214
Ar  4.618719  7.312087  4.451043
Ar  7.441464  9.757673  4.468567
Ar  7.805504  7.843978  7.601308
Ar  5.333881  10.742077  8.172947
Ar  6.586000  6.721271  11.131435
Ar  8.522145  9.858839  11.216219
Ar  8.487461  4.979515  14.372605
Ar  5.323545  10.373026  12.637844
Ar  5.196676  12.628160  15.152647
Ar  8.558818  14.424536  16.241227
Ar  8.581161  11.070752  0.724745
Ar  6.640494  14.561022  2.727317
Ar  5.226198  12.184085  4.801097
Ar  7.701536  14.229628  6.065936
Ar  9.294046  11.251076  7.857867
Ar  4.647183  14.762643  8.101917
Ar  5.649016  13.744237  11.591958
Ar  8.612003  13.685771  9.965650
Ar  8.633005  12.503435  13.525968
Ar  3.969136  15.640628  14.082023
Ar  11.017174  0.463299  1.279600
Ar  11.765552  3.955491  0.236624
Ar  14.507241  1.826598  1.494264
Ar  10.593625  3.204127  3.769727
Ar  12.147902  0.095435  4.774398
Ar  14.340367  3.394651  5.397315
Ar  14.187831  0.189830  7.699045
Ar  10.218131  4.740075  7.272401
Ar  10.288235  2.802607  10.826493
Ar  13.787796  1.784931  11.189443
Ar  14.209072  0.091395  14.448948
Ar  10.313542  1.644885  14.613081
Ar  9.581548  6.863850  17.142788
Ar  13.795683  7.861216  14.857899
Ar  14.990202  5.541161  1.649048
Ar  12.228836  9.303849  0.762801
Ar  10.913014  6.706840  3.902182
Ar  14.325551  8.551700  5.161514
Ar  13.553905  5.480820  9.453470
Ar  11.351962  7.988092  6.986736
Ar  9.989399  6.414712  10.259427
Ar  13.364454  9.209029  10.782051
Ar  12.447963  4.853006  12.925005
Ar  10.695920  9.196375  13.815451
Ar  11.740907  12.565642  16.410379
Ar  13.559033  15.590937  0.548634
Ar  13.502209  12.234379  2.403435
Ar  10.316619  14.691052  3.397050
Ar  10.943290  11.065241  4.484828
Ar  14.190356  14.603121  5.165263
Ar  12.995739  11.374504  7.471639
Ar  11.341247  14.928610  7.466743
Ar  12.706447  12.639099  10.698204
Ar  11.393554  16.379427  10.687000
Ar  14.468086  12.849304  13.968138
Ar  11.389041  14.914503  14.167739
108
Frame 44 box=17.158430
Ar  17.087261  16.502759  0.309461
Ar  3.378722  2.160147  16.674269
Ar  3.526881  0.541844  3.169653
Ar  1.494830  3.509617  2.269280
Ar  16.754426  17.001613  4.111586
Ar  3.349249  3.529204  5.549236
Ar  0.894755  0.378411  7.190145
Ar  0.728924  5.331423  8.212936
Ar  16.042074  16.326542  11.682392
Ar  0.932359  2.737009  10.712316
Ar  0.636628  1.315855  14.342859
Ar  15.814633  4.017977  15.766453
Ar  0.013046  7.281569  15.831231
Ar  3.378813  9.139495  15.428801
Ar  2.401215  7.574275  1.604937
Ar  16.362112  9.404939  2.797629
Ar  0.047755  6.110411  4.980619
Ar  2.322816  10.101695  4.505227
Ar  4.063906  7.468260  7.692852
Ar  0.416814  8.745921  7.317706
Ar  15.872870  6.925650  11.621484
Ar  2.033620  8.852608  10.624100
Ar  2.011865  6.388261  13.108744
Ar  16.520933  9.827643  13.482618
Ar  15.601521  11.552183  16.782490
Ar  3.225657  14.995620  0.659485
Ar  1.897991  11.361512  1.030656
Ar  17.055424  13.768747  2.705231
Ar  16.371796  11.674728  5.601091
Ar  2.101445  14.479761  5.195927
Ar  2.487592  11.990761  8.293108
Ar  16.654465  14.370721  7.548854
Ar  16.358683  11.822996  10.234337
Ar  2.006014  15.263716  10.230376
Ar  2.015994  11.916809  12.048672
Ar  0.945848  13.346493  15.290304
Ar  5.910778  17.139977  0.248368
Ar  8.021539  2.996656  0.115914
Ar  7.958309  1.016881  3.216260
Ar  5.035215  4.030514  2.267802
Ar  5.684835  0.601880  6.734006
Ar  7.118550  3.766928  5.798422
Ar  9.162688  0.865738  7.476133
Ar  4.014818  3.830183  9.250760
Ar  4.638755  0.276176  10.720769
Ar  6.896156  3.001775  10.335661
Ar  8.425195  17.111745  12.138460
Ar  5.135082  2.132816  13.744720
Ar  4.372074  5.941593  15.892161
Ar  7.178025  8.554683  15.051880
Ar  8.311755  5.815755  2.782124
Ar  5.549163  9.210987  1.545075
Ar  5.421179  6.918158  4.475796
Ar  8.035757  9.008907  4.515372
Ar  7.639179  7.598313  7.960514
Ar  5.560320  10.731599  8.188637
Ar  5.480736  6.426034  11.944182
Ar  8.539930  10.212202  10.788233
Ar  8.437352  5.113477  13.729471
Ar  5.282989  9.915135  12.576279
Ar  4.706828  12.621725  15.914429
Ar  8.451963  14.739140  15.898990
Ar  7.764562  11.657262  0.577945
Ar  6.404122  14.162122  2.353815
Ar  5.367608  11.724826  4.504491
Ar  7.553118  14.606563  6.316739
Ar  9.187018  11.641075  7.318466
Ar  4.630955  14.711975  8.007478
Ar  5.567430  13.674538  11.519024
Ar  9.072846  13.945040  10.653382
Ar  8.021205  11.755834  13.947850
Ar  3.651915  15.483559  14.047343
Ar  10.340235  0.357957  0.589675
Ar  11.863573  4.270402  0.401324
Ar  14.428072  1.904709  2.042724
Ar  10.593625  3.204127  3.769727
Ar  12.238446  0.601832  5.058338
Ar  14.958674  3.062397  5.376297
Ar  13.725031  0.299113  7.908232
Ar  10.233244  4.523329  7.352262
Ar  10.288235  2.802607  10.826493
Ar  14.276544  2.022399  10.837258
Ar  14.041505  0.980110  14.815691
Ar  10.527183  2.051795  14.341145
Ar  9.560525  7.193518  17.018358
Ar  13.889244  7.340244  14.706053
Ar  15.115055  6.171005  2.058608
Ar  11.760388  8.992293  1.670443
Ar  11.544076  6.320366  4.748023
Ar  14.259997  8.081294  5.136270
Ar  14.269327  4.868741  8.708695
Ar  11.493942  8.397461  7.511708
Ar  9.873175  6.177828  10.383265
Ar  12.283131  9.203415  11.294884
Ar  12.965545  5.204958  12.263104
Ar  10.665187  9.226453  14.237799
Ar  11.617587  11.942485  16.508082
Ar  13.812689  15.379773  0.071708
Ar  13.502209  12.234379  2.403435
Ar  10.272673  14.370606  3.445586
Ar  10.943290  11.065241  4.484828
Ar  14.149168  14.542632  5.368851
Ar  13.568130  11.117536  7.853578
Ar  10.890766  14.800535  7.536415
Ar  12.148034  12.616733  10.401924
Ar  11.602703  16.685170  10.750503
Ar  14.667719  13.186490  13.947668
Ar  11.389041  14.914503  14.167739
108
Frame 45 box=17.158430
Ar  0.753771  16.735574  16.703575
Ar  3.120213  2.400214  16.557313
Ar  3.171108  0.716120  3.091846
Ar  0.871348  3.305852  2.563704
Ar  16.228387  0.355909  3.835343
Ar  3.088928  3.201944  5.574127
Ar  1.202697  0.279082  6.768686
Ar  0.512832  5.051929  8.295193
Ar  15.559643  15.857870  10.915722
Ar  1.094523  1.816885  10.096987
Ar  0.956458  2.043787  13.652047
Ar  15.256582  3.904043  15.553998
Ar  0.068419  6.865660  16.122356
Ar  3.116501  9.125178  14.730916
Ar  2.053703  7.328110  1.802493
Ar  16.373819  9.693490  2.865231
Ar  0.532114  6.211356  4.932091
Ar  2.322816  10.101695  4.505227
Ar  4.033319  7.080653  7.865909
Ar  0.372161  8.653901  7.299493
Ar  16.201572  6.899204  11.434563
Ar  2.174554  8.727450  10.566377
Ar  2.269984  5.983121  12.938382
Ar  16.453087  10.097740  13.578156
Ar  15.057071  11.447992  16.649928
Ar  3.161490  14.681256  0.758185
Ar  1.897991  11.361512  1.030656
Ar  17.055983  14.040275  2.391032
Ar  16.371796  11.674728  5.601091
Ar  1.887833  14.276001  5.352167
Ar  2.487592  11.990761  8.293108
Ar  16.654465  14.370721  7.548854
Ar  15.962545  11.387915  9.646489
Ar  2.006014  15.263716  10.230376
Ar  2.187962  12.282848  11.970890
Ar  0.250978  13.709331  15.439132
Ar  6.095319  0.294541  0.177042
Ar  7.896934  3.368393  0.152583
Ar  7.548536  1.366778  3.016079
Ar  4.980836  3.871333  2.398793
Ar  5.237789  0.565172  6.878912
Ar  7.132781  3.852446  5.909152
Ar  9.074882  1.047262  7.171893
Ar  3.720616  3.792714  8.701696
Ar  4.810026  0.163023  10.834613
Ar  6.896156  3.001775  10.335661
Ar  7.836873  0.250490  12.647723
Ar  4.911199  3.308816  13.345268
Ar  4.597575  5.604323  16.478685
Ar  6.855028  8.322293  14.870521
Ar  8.020184  5.868145  2.571375
Ar  5.459865  8.704403  1.149643
Ar  4.652453  6.765237  4.427538
Ar  8.016445  8.650080  4.493052
Ar  7.678557  7.071394  7.969788
Ar  5.898607  11.279167  8.372609
Ar  5.834638  6.596747  11.724196
Ar  8.722211  9.906807  10.738872
Ar  8.148664  4.699805  14.100897
Ar  5.467339  10.242491  12.142444
Ar  4.934501  12.373877  16.113828
Ar  8.918896  14.990454  16.199144
Ar  8.221095  11.485514  0.211965
Ar  6.688437  14.764596  2.287477
Ar  5.598668  11.904872  4.042697
Ar  7.581911  14.884173  5.926407
Ar  9.064220  11.752800  7.231213
Ar  4.727565  14.545449  7.812279
Ar  5.308494  13.896741  11.566785
Ar  8.778956  14.064396  10.682095
Ar  8.280433  12.117228  13.737919
Ar  5.010804  15.430246  14.683533
Ar  10.468803  0.348134  0.657638
Ar  11.912403  4.741199  0.192219
Ar  14.691739  2.079682  1.143144
Ar  10.609801  3.157539  3.463912
Ar  12.245968  0.516523  5.211570
Ar  14.826295  3.978480  5.031956
Ar  14.571995  0.640863  8.260172
Ar  10.314585  4.845886  7.444853
Ar  10.453013  2.739758  10.637979
Ar  15.178424  2.626085  11.538047
Ar  13.517117  0.131829  14.851497
Ar  10.413007  1.789985  14.700603
Ar  9.504450  6.907151  16.560596
Ar  13.943836  7.538425  14.756657
Ar  14.957392  6.376760  1.943495
Ar  12.215290  8.943750  1.540722
Ar  11.140675  6.521649  4.270871
Ar  13.839291  8.517603  5.042501
Ar  13.973123  4.460707  8.862166
Ar  11.642488  8.419447  7.867692
Ar  9.706688  6.476218  11.169774
Ar  13.004480  8.902843  11.202151
Ar  12.685343  4.848421  12.739522
Ar  10.665187  9.226453  14.237799
Ar  11.509599  12.277592  16.343938
Ar  13.614097  14.961334  0.482250
Ar  13.781717  12.444697  2.802266
Ar  10.353073  14.991105  3.296547
Ar  11.033365  10.797923  4.476142
Ar  14.064536  14.671643  5.418489
Ar  13.115916  11.871994  7.069145
Ar  11.121200  14.719289  7.373625
Ar  12.095133  12.626245  10.568471
Ar  11.732870  16.608578  10.471717
Ar  15.017634  13.280801  13.272622
Ar  11.628415  14.611278  13.326096
108
Frame 46 box=17.158430
Ar  0.372439  0.346132  16.767102
Ar  2.936887  2.503849  16.786889
Ar  2.881617  0.594574  3.070949
Ar  0.580693  3.745007  1.863414
Ar  16.228387  0.355909  3.835343
Ar  2.725095  3.357337  5.073708
Ar  1.638816  0.251341  6.658268
Ar  0.536501  4.779744  8.237283
Ar  15.889801  16.194267  10.729394
Ar  1.066537  2.074640  10.172868
Ar  1.203545  1.292240  13.386003
Ar  15.003502  4.227050  15.354698
Ar  0.228184  7.035989  15.922753
Ar  3.721237  9.264092  15.248191
Ar  2.053703  7.328110  1.802493
Ar  16.698758  9.468544  2.991438
Ar  0.206472  6.003348  5.096488
Ar  2.711554  9.558874  4.839158
Ar  3.588502  7.162110  7.841855
Ar  16.969540  8.689268  7.081324
Ar  16.783159  6.498623  11.683910
Ar  1.965867  8.874327  10.896784
Ar  2.122412  5.384359  13.645271
Ar  16.939357  10.010931  13.811377
Ar  15.139639  10.795273  17.093387
Ar  3.918940  14.016678  1.971465
Ar  1.876297  10.841186  0.628386
Ar  17.010631  13.751798  2.959568
Ar  16.371796  11.674728  5.601091
Ar  2.454063  14.073302  5.201968
Ar  1.993223  11.657163  8.270098
Ar  16.654222  14.176073  7.770028
Ar  15.973136  10.819576  9.566925
Ar  2.194575  14.994789  10.394283
Ar  2.437992  12.298861  12.758802
Ar  0.299826  13.518687  15.389593
Ar  5.380075  0.092274  0.106442
Ar  7.976920  2.963128  0.204086
Ar  7.755515  1.340416  3.302153
Ar  4.693755  3.793757  2.508625
Ar  5.641588  0.678358  6.585400
Ar  7.836437  4.186983  6.136518
Ar  9.466885  1.248290  7.208637
Ar  3.921395  3.721079  8.457670
Ar  4.773953  0.142164  10.968738
Ar  7.048081  3.523114  9.888606
Ar  8.324665  0.251789  12.572035
Ar  5.156742  2.571078  14.104880
Ar  4.414228  5.735206  16.456373
Ar  6.779797  8.504043  14.428190
Ar  8.020184  5.868145  2.571375
Ar  5.414233  9.087552  1.618166
Ar  4.925750  6.554954  4.621906
Ar  8.051709  8.829821  4.836529
Ar  7.763239  7.178495  8.102880
Ar  5.676724  11.023816  7.914912
Ar  6.314635  6.333805  11.710943
Ar  8.417155  10.081497  10.706543
Ar  8.862783  4.267449  13.837470
Ar  5.132904  10.010231  11.811718
Ar  5.211531  12.480080  15.376181
Ar  7.986577  14.877751  16.083360
Ar  8.852836  11.532405  0.660431
Ar  7.339252  14.995254  2.377937
Ar  6.025127  11.619737  4.464275
Ar  7.733072  14.927026  5.854328
Ar  9.404807  11.831742  7.401665
Ar  4.776642  14.480666  7.802709
Ar  5.605969  14.106177  12.020331
Ar  8.778956  14.064396  10.682095
Ar  8.378605  11.953224  13.895269
Ar  3.584572  15.895210  14.058337
Ar  10.959156  0.323252  0.903382
Ar  11.406874  4.212686  0.276062
Ar  14.297099  1.948802  1.070959
Ar  10.580821  2.958665  3.874620
Ar  12.646782  0.778600  5.333358
Ar  14.596640  3.707036  4.532197
Ar  15.409964  0.809335  7.253847
Ar  11.176791  4.688966  7.546190
Ar  10.453013  2.739758  10.637979
Ar  15.070015  2.396976  11.896917
Ar  14.117430  16.690537  14.235639
Ar  11.220494  1.614168  14.470798
Ar  9.370086  7.157549  16.881572
Ar  14.002188  7.886816  15.068063
Ar  15.225062  6.131292  1.630532
Ar  12.684036  8.867016  1.127956
Ar  11.140675  6.521649  4.270871
Ar  13.939393  8.582528  5.123451
Ar  14.159975  5.546761  8.820430
Ar  10.952805  8.760546  8.358827
Ar  9.898516  6.187661  10.852824
Ar  13.550018  9.301297  11.802965
Ar  13.083626  5.601642  12.496141
Ar  10.745875  9.229512  13.746782
Ar  12.243498  12.255013  15.727145
Ar  14.574642  14.599633  0.251447
Ar  13.574715  12.306952  2.952293
Ar  10.390170  14.225192  2.978706
Ar  11.057496  10.306877  4.684076
Ar  14.203003  14.604600  5.262343
Ar  13.151023  11.559866  7.004591
Ar  10.906929  14.962910  7.385540
Ar  11.927351  12.536572  10.846529
Ar  12.048838  16.706775  10.338889
Ar  14.541323  13.302639  13.109112
Ar  11.195141  15.029552  13.723797
108
Frame 47 box=17.158430
Ar  16.649010  0.629900  0.305242
Ar  3.073065  2.915203  16.188672
Ar  2.513010  0.053261  3.399509
Ar  0.997560  3.736819  2.223591
Ar  16.076195  0.643050  4.667600
Ar  2.841466  3.453344  5.298483
Ar  2.166137  0.009926  7.192710
Ar  0.375310  4.716436  8.272821
Ar  15.889801  16.194267  10.729394
Ar  0.906285  1.637474  10.081378
Ar  0.660947  1.145510  13.624654
Ar  14.819333  4.174136  15.378858
Ar  0.219900  6.876870  15.870595
Ar  3.342300  9.397712  14.976997
Ar  2.270925  7.244470  2.145104
Ar  16.382111  9.335233  2.827468
Ar  0.555324  6.080393  4.977373
Ar  2.997728  9.610917  5.201085
Ar  3.449589  7.106581  7.890377
Ar  0.209557  8.103117  7.803722
Ar  16.623992  6.348428  12.006286
Ar  1.914389  9.044346  10.657725
Ar  3.008877  6.085388  13.572100
Ar  16.831772  10.186401  13.491707
Ar  15.139639  10.795273  17.093387
Ar  3.698748  13.203016  1.814404
Ar  1.594198  10.855987  0.351712
Ar  16.961131  13.877602  2.679781
Ar  16.267143  11.778505  5.608446
Ar  2.454063  14.073302  5.201968
Ar  2.234191  11.526357  8.003042
Ar  16.867206  14.132122  7.821746
Ar  15.956306  10.932259  9.847594
Ar  1.860222  14.731970  10.443777
Ar  2.463670  12.225736  12.562383
Ar  0.508384  13.405376  15.618015
Ar  5.202953  0.233978  0.277163
Ar  8.258467  2.629523  17.002494
Ar  7.997453  1.295167  3.387086
Ar  5.120706  3.393193  2.634335
Ar  5.410855  0.259544  6.361137
Ar  7.344003  4.342678  5.532999
Ar  8.710025  0.804028  7.603718
Ar  3.798386  3.339953  8.841154
Ar  4.415571  0.330719  10.960441
Ar  6.919728  3.351578  10.415997
Ar  8.917673  0.156634  11.679517
Ar  5.635395  2.135160  13.884929
Ar  4.694326  6.367102  16.649587
Ar  7.368784  8.150100  13.990583
Ar  8.022448  5.998319  2.065122
Ar  5.414233  9.087552  1.618166
Ar  4.779542  6.428055  4.714218
Ar  8.051709  8.829821  4.836529
Ar  8.191811  7.254450  7.983165
Ar  6.130126  11.067772  8.100197
Ar  5.583072  6.616915  11.092681
Ar  8.417155  10.081497  10.706543
Ar  8.397503  4.459767  13.610809
Ar  5.083732  10.002495  12.027262
Ar  5.220139  12.878316  15.798804
Ar  8.104716  15.317710  15.399574
Ar  9.388110  11.388626  0.517452
Ar  6.803934  14.814334  1.857531
Ar  5.859848  11.781471  4.893404
Ar  7.745379  14.535568  6.006539
Ar  9.391084  11.915810  7.620553
Ar  4.816659  14.356924  8.181005
Ar  5.842504  13.749596  12.317992
Ar  8.861904  13.772251  10.476499
Ar  8.106933  11.738075  13.970491
Ar  3.242117  15.418952  14.537012
Ar  10.617960  17.007360  0.334142
Ar  11.851521  5.079311  0.248091
Ar  13.461943  1.805924  1.664222
Ar  10.823509  3.216658  3.954119
Ar  12.646782  0.778600  5.333358
Ar  14.624108  4.142765  5.480474
Ar  14.726723  1.072322  7.973342
Ar  10.944623  4.651099  7.428907
Ar  10.772560  2.965536  10.327830
Ar  15.245701  3.151780  11.815207
Ar  14.803874  16.679145  14.234689
Ar  11.701271  2.196006  14.543672
Ar  9.590908  8.090234  16.900270
Ar  14.028465  8.030906  15.269788
Ar  15.112509  5.881645  2.112606
Ar  12.788074  8.509753  1.657232
Ar  11.136432  7.275399  4.280507
Ar  13.986542  8.929837  5.669930
Ar  14.247108  5.885946  9.121300
Ar  11.602884  8.535972  8.437158
Ar  10.126832  6.863745  11.182659
Ar  13.706735  8.806030  11.562399
Ar  12.847057  5.332864  12.582807
Ar  10.907896  9.164104  13.530518
Ar  12.367526  11.953377  15.202676
Ar  13.927041  15.264070  0.421313
Ar  13.607806  12.286433  2.530041
Ar  10.390170  14.225192  2.978706
Ar  10.641341  10.706509  3.763018
Ar  14.278816  14.679292  5.319036
Ar  12.899096  11.952432  6.901734
Ar  10.857941  15.114314  7.100477
Ar  11.663776  11.817949  10.203733
Ar  12.190840  16.603508  10.714795
Ar  15.278874  13.193782  12.558399
Ar  11.195141  15.029552  13.723797
108
Frame 48 box=17.158430
Ar  16.878526  16.820408  0.500211
Ar  2.833744  3.556659  16.509634
Ar  2.587898  0.388553  2.801048
Ar  0.655224  3.592228  2.575540
Ar  16.365843  1.187495  4.814729
Ar  2.841466  3.453344  5.298483
Ar  1.041859  0.506283  7.468165
Ar  0.332495  4.581465  7.939356
Ar  15.809416  16.490351  10.523075
Ar  1.229462  2.000148  10.412176
Ar  0.531205  1.407749  14.173519
Ar  15.052921  3.861040  16.085460
Ar  0.154218  7.005604  16.166038
Ar  3.260476  9.423689  14.658160
Ar  2.270925  7.244470  2.145104
Ar  16.382111  9.335233  2.827468
Ar  0.223772  6.111526  4.866109
Ar  2.656471  9.673747  5.088460
Ar  3.886710  7.131140  7.873229
Ar  0.237289  7.870318  7.806181
Ar  16.710674  6.179577  12.127754
Ar  2.439326  9.485683  10.379654
Ar  3.199334  5.930963  13.982415
Ar  16.831772  10.186401  13.491707
Ar  15.589613  11.124132  16.678738
Ar  3.631644  13.983509  1.846499
Ar  1.832416  10.652404  0.729444
Ar  17.129376  13.211021  2.265245
Ar  16.269426  11.688725  5.978199
Ar  3.570135  14.113689  5.318442
Ar  1.986743  11.781227  7.697819
Ar  16.641802  14.424755  7.795164
Ar  16.467083  11.377024  9.781668
Ar  1.691637  14.912687  10.414371
Ar  2.480010  12.753744  13.110723
Ar  0.062244  13.893542  16.174689
Ar  5.168877  0.210187  0.350467
Ar  8.138720  2.632476  0.057213
Ar  8.712833  0.172910  3.254659
Ar  4.928092  3.747140  2.272390
Ar  5.267571  0.059607  5.616099
Ar  7.923819  4.837410  5.472985
Ar  9.413460  0.790682  7.768934
Ar  3.707691  3.809380  8.989718
Ar  4.711414  0.200532  10.543600
Ar  6.864835  3.124924  10.879368
Ar  8.949738  0.408272  12.308735
Ar  5.468759  1.768001  14.191343
Ar  4.898375  6.523374  16.843012
Ar  7.235304  8.266173  14.928596
Ar  7.986488  6.248814  1.705815
Ar  6.468181  9.652659  1.529765
Ar  4.803238  6.905271  4.487265
Ar  8.051709  8.829821  4.836529
Ar  7.618107  7.732718  8.106555
Ar  5.965167  11.180276  8.481750
Ar  6.103001  6.780892  11.604649
Ar  9.070868  10.180627  10.666991
Ar  9.231056  5.030079  13.975016
Ar  5.492168  10.075967  11.766022
Ar  5.120700  12.594295  16.020728
Ar  7.780673  16.556278  15.343452
Ar  9.149869  11.878768  0.009675
Ar  6.995793  14.763918  2.100229
Ar  5.936254  11.657673  4.889121
Ar  7.745379  14.535568  6.006539
Ar  9.391084  11.915810  7.620553
Ar  5.287356  14.618875  8.475500
Ar  5.842504  13.749596  12.317992
Ar  9.023024  13.749081  10.666793
Ar  8.241710  11.834428  13.897515
Ar  3.378464  15.785709  14.203218
Ar  10.791988  0.238359  0.411034
Ar  11.445693  4.853967  0.246737
Ar  14.111097  1.698087  1.741313
Ar  11.232151  3.533500  3.578737
Ar  12.301732  0.347598  4.497820
Ar  14.230768  4.444685  5.340782
Ar  14.023700  1.936154  8.275754
Ar  10.926686  4.659100  7.022495
Ar  10.772560  2.965536  10.327830
Ar  14.740863  2.508732  11.772078
Ar  15.014536  15.956802  14.489306
Ar  11.822165  1.384642  14.302314
Ar  10.160255  7.842666  17.116929
Ar  13.515832  7.582246  15.713049
Ar  15.137409  5.838086  1.981825
Ar  12.859197  9.265518  1.507282
Ar  10.858575  7.171919  3.799701
Ar  13.794067  8.644448  5.350644
Ar  13.850726  5.495160  8.722067
Ar  11.137580  8.841442  8.437756
Ar  10.193104  6.494539  10.704792
Ar  13.827802  8.783374  11.300243
Ar  12.847057  5.332864  12.582807
Ar  10.907896  9.164104  13.530518
Ar  12.373664  11.919305  15.618331
Ar  13.455672  15.219771  0.678088
Ar  13.676108  12.142937  2.641690
Ar  10.705242  14.443332  2.725862
Ar  10.543243  11.002657  3.683782
Ar  14.811601  14.981737  4.363849
Ar  12.756825  11.707693  6.575639
Ar  11.551394  14.905964  7.244314
Ar  12.071915  12.215318  10.633939
Ar  12.228482  16.726488  10.865496
Ar  14.997009  12.751799  12.972538
Ar  10.624994  15.094981  14.243144
108
Frame 49 box=17.158430
Ar  0.426570  16.869252  0.039083
Ar  3.257197  3.234503  16.611465
Ar  2.422511  17.104673  3.209980
Ar  0.653310  3.905124  1.641256
Ar  16.662434  1.649181  4.436712
Ar  3.374054  3.569621  5.487289
Ar  1.967555  0.247981  7.491613
Ar  0.511184  4.293086  7.835939
Ar  15.597283  16.440270  10.765356
Ar  1.229462  2.000148  10.412176
Ar  1.137316  1.293928  14.087382
Ar  14.366597  3.159955  15.884660
Ar  17.083317  6.286500  15.966379
Ar  2.640123  9.327956  14.504632
Ar  2.206845  7.243869  1.874851
Ar  16.472073  9.408942  3.184326
Ar  0.549651  6.462296  4.862294
Ar  2.422974  9.863988  5.085386
Ar  3.223253  7.123763  7.603699
Ar  16.727202  7.851229  8.130519
Ar  16.025679  5.778365  11.726094
Ar  2.182407  9.334074  10.933397
Ar  2.960003  5.862307  13.738096
Ar  16.831772  10.186401  13.491707
Ar  15.893211  10.324997  17.031971
Ar  3.591832  14.171785  1.262105
Ar  2.151026  10.848385  0.346565
Ar  0.318451  12.998641  2.575973
Ar  16.259405  11.717938  5.552622
Ar  3.409147  14.343013  5.420896
Ar  2.113863  12.087845  8.025093
Ar  16.443462  14.908117  7.808786
Ar  16.042625  11.620656  9.401331
Ar  1.691637  14.912687  10.414371
Ar  2.178086  12.628820  13.163266
Ar  0.166804  13.719519  16.134361
Ar  5.087808  0.230401  0.584395
Ar  7.797844  2.253317  16.875726
Ar  9.217480  0.657587  3.868590
Ar  5.435684  4.081373  2.442768
Ar  5.359945  0.657707  6.619203
Ar  7.819650  5.681720  5.106877
Ar  9.034142  0.606560  8.086296
Ar  4.162647  4.039679  9.151214
Ar  4.326026  0.663466  10.455680
Ar  7.287760  3.593122  10.502283
Ar  8.949738  0.408272  12.308735
Ar  5.574489  1.563652  14.046817
Ar  4.898375  6.523374  16.843012
Ar  7.437301  8.230465  14.651992
Ar  8.131838  5.785372  1.297283
Ar  5.521333  9.657556  0.843980
Ar  4.679473  6.926174  4.391679
Ar  7.830787  9.234366  4.330778
Ar  7.195749  7.526491  8.141900
Ar  5.935488  10.861805  7.841565
Ar  5.904775  6.778728  11.504852
Ar  9.070868  10.180627  10.666991
Ar  9.237120  5.373191  14.126234
Ar  5.317704  10.346282  12.053764
Ar  4.968760  12.394755  15.624623
Ar  7.696812  15.192286  14.948774
Ar  9.174259  11.674842  0.200125
Ar  7.409675  14.872019  1.430499
Ar  6.360145  12.229263  4.078811
Ar  7.845410  14.951069  5.982677
Ar  9.351600  12.192855  7.436136
Ar  5.527536  14.930578  9.147651
Ar  5.842504  13.749596  12.317992
Ar  8.874727  13.781941  10.892844
Ar  8.410947  11.507702  13.760510
Ar  3.307741  15.771349  14.329214
Ar  10.622726  0.164035  0.296168
Ar  11.337957  4.864429  17.130089
Ar  14.282214  1.610492  1.884274
Ar  10.953408  3.657260  3.258004
Ar  12.301732  0.347598  4.497820
Ar  14.070316  4.160461  5.101748
Ar  14.910820  1.870596  7.887484
Ar  10.735605  4.855546  6.864888
Ar  10.772560  2.965536  10.327830
Ar  14.796917  2.252402  12.257044
Ar  15.014536  15.956802  14.489306
Ar  11.557091  1.734496  13.668543
Ar  10.080955  8.052902  17.039159
Ar  13.713691  7.515607  15.538971
Ar  14.803068  6.013741  1.936144
Ar  12.859197  9.265518  1.507282
Ar  10.858575  7.171919  3.799701
Ar  14.252459  8.756134  5.643110
Ar  14.006392  5.945272  8.723266
Ar  11.260166  8.652030  8.527018
Ar  9.741495  6.135566  10.743789
Ar  13.682562  9.319776  11.619564
Ar  12.622816  5.389290  13.065051
Ar  10.909359  8.889638  13.677102
Ar  12.373664  11.919305  15.618331
Ar  13.711049  15.447364  0.766769
Ar  14.053433  12.525469  2.244118
Ar  10.811201  14.615734  3.002143
Ar  10.854850  11.288911  3.384414
Ar  15.229678  15.384549  3.887176
Ar  13.270048  11.884979  7.264653
Ar  11.593358  15.043797  8.095076
Ar  12.250895  12.250709  10.412755
Ar  12.020331  16.259607  11.139275
Ar  14.403737  12.924442  12.821697
Ar  11.223519  15.225448  14.665208
108
Frame 50 box=17.158430
Ar  17.093273  16.916702  0.608781
Ar  3.257197  3.234503  16.611465
Ar  3.134361  0.089647  3.520796
Ar  0.528063  4.027196  1.788646
Ar  17.029150  1.362904  5.623836
Ar  2.603581  3.695617  5.140075
Ar  2.894475  0.795996  7.740326
Ar  0.432361  4.777251  8.153465
Ar  15.597283  16.440270  10.765356
Ar  0.724977  2.029605  10.558631
Ar  1.137316  1.293928  14.087382
Ar  15.018621  3.182184  15.638997
Ar  17.077324  5.682132  15.847704
Ar  2.663297  9.375656  14.339600
Ar  2.219209  7.285704  1.285249
Ar  16.453231  9.232753  2.745632
Ar  0.549651  6.462296  4.862294
Ar  2.670400  9.762780  4.765441
Ar  3.372418  7.238277  7.484290
Ar  16.917291  8.280977  8.713087
Ar  16.331793  5.944548  11.338951
Ar  2.430217  9.595910  10.684638
Ar  2.865398  5.998189  12.920678
Ar  16.303631  10.617922  13.312007
Ar  15.495368  10.700514  16.921485
Ar  4.105190  14.137394  0.752161
Ar  1.951466  10.748874  0.892814
Ar  0.363067  13.031219  2.843433
Ar  16.085949  11.599858  6.191016
Ar  3.579831  14.094233  4.924555
Ar  2.062664  12.013593  7.844678
Ar  16.416907  14.812337  7.814274
Ar  15.970858  11.985550  9.899609
Ar  1.944243  15.768458  10.640429
Ar  1.711849  13.147301  12.917840
Ar  0.286658  13.814483  16.316085
Ar  4.864024  0.588515  0.616943
Ar  8.180301  2.081091  16.608681
Ar  8.871025  0.526002  3.625408
Ar  5.071752  3.623535  2.474912
Ar  5.916905  1.978766  6.487053
Ar  7.819650  5.681720  5.106877
Ar  8.916048  0.411321  8.578771
Ar  4.089251  4.187765  9.555582
Ar  4.702444  0.824984  10.747461
Ar  7.751245  3.632249  10.879447
Ar  8.233910  0.378289  11.911614
Ar  5.298621  1.986660  14.208240
Ar  5.171016  6.399686  16.839237
Ar  7.203594  8.537851  14.675647
Ar  8.043921  5.430593  1.614215
Ar  5.506653  10.149099  0.928016
Ar  4.826171  7.282350  3.619358
Ar  7.692417  8.930532  4.859309
Ar  7.452507  6.991085  8.470753
Ar  5.377485  10.071218  8.148176
Ar  6.245370  6.452361  12.234933
Ar  9.010885  10.026288  10.694660
Ar  9.305931  4.965104  14.181927
Ar  5.687399  9.985637  11.896505
Ar  4.949245  12.221467  15.253876
Ar  7.251782  14.981106  14.632771
Ar  9.584652  11.732325  0.092941
Ar  7.409675  14.872019  1.430499
Ar  6.555123  12.256922  4.407887
Ar  7.733274  15.178584  5.806766
Ar  8.544355  11.737881  7.255450
Ar  4.933698  14.345608  8.147752
Ar  5.271424  13.493752  11.857573
Ar  8.655280  14.158429  10.062695
Ar  8.410947  11.507702  13.760510
Ar  3.727095  16.030767  14.272078
Ar  11.605822  0.693135  0.375588
Ar  11.647688  4.808485  17.135842
Ar  14.682757  1.512376  1.999171
Ar  10.881703  3.484321  3.524170
Ar  12.519855  0.429096  4.628727
Ar  14.259897  3.833892  5.395474
Ar  14.123232  1.746323  7.993003
Ar  10.559789  4.831848  7.145658
Ar  11.270945  2.724631  10.305831
Ar  14.639757  2.297295  11.756201
Ar  15.476728  16.153978  14.431044
Ar  11.310896  1.938623  14.051400
Ar  9.756198  7.986831  0.088611
Ar  13.534491  7.601726  15.587279
Ar  14.585681  5.961252  2.099155
Ar  13.138295  9.330266  1.672244
Ar  11.186007  7.340786  4.166526
Ar  14.664572  8.502817  5.762832
Ar  13.741065  5.611766  8.408107
Ar  11.394295  8.629344  8.068226
Ar  10.189186  6.231983  10.539687
Ar  13.530434  8.280458  11.538175
Ar  12.590224  5.309363  12.915804
Ar  10.695347  8.782743  13.646798
Ar  12.408396  11.405809  15.548338
Ar  13.750600  15.286850  0.348205
Ar  14.079857  12.755017  2.372783
Ar  10.628559  14.755454  3.413123
Ar  10.860053  11.336969  3.611935
Ar  15.507459  15.649140  4.152903
Ar  12.631251  12.141155  6.648746
Ar  11.623447  15.115340  7.864151
Ar  12.060299  12.343011  10.340390
Ar  12.020331  16.259607  11.139275
Ar  13.996794  13.241325  13.033098
Ar  10.699629  15.004305  15.168285
108
Frame 51 box=17.158430
Ar  0.395396  0.103251  0.616755
Ar  2.776378  3.249049  16.329842
Ar  3.068238  0.167705  3.802503
Ar  0.384195  3.439850  1.598644
Ar  17.029150  1.362904  5.623836
Ar  2.635286  3.606069  4.952756
Ar  2.777691  0.588714  7.636995
Ar  0.243016  4.960697  7.809551
Ar  15.764142  16.571370  11.073270
Ar  1.083063  1.934298  10.503838
Ar  0.709868  2.073864  14.035396
Ar  14.938832  3.011602  15.775451
Ar  0.050349  6.655638  15.221078
Ar  3.019705  9.326877  14.627031
Ar  1.910240  7.102452  1.122812
Ar  16.787974  9.474726  2.768066
Ar  0.709683  6.642571  4.461497
Ar  2.859326  9.668275  5.333403
Ar  4.050676  7.035268  7.350928
Ar  16.992574  8.298216  8.209486
Ar  16.313373  6.207975  11.255449
Ar  2.430217  9.595910  10.684638
Ar  2.344161  5.302811  12.816725
Ar  16.347168  10.360825  13.707312
Ar  15.495368  10.700514  16.921485
Ar  3.608160  13.545795  1.054228
Ar  2.218218  10.514333  0.668426
Ar  0.363067  13.031219  2.843433
Ar  16.466643  11.716478  6.351346
Ar  2.960236  13.822487  5.255773
Ar  2.002736  12.121137  8.372610
Ar  16.609577  14.862166  7.964563
Ar  15.839503  11.918311  9.897503
Ar  2.244486  15.365194  10.735065
Ar  1.671780  12.929415  13.077249
Ar  0.286658  13.814483  16.316085
Ar  4.695438  0.280037  0.521876
Ar  8.156539  1.973091  17.062260
Ar  8.647430  0.970649  3.217085
Ar  4.640055  3.337955  2.084044
Ar  5.746679  1.892571  6.163453
Ar  7.619282  5.015882  4.831571
Ar  8.916048  0.411321  8.578771
Ar  3.504158  4.114638  9.225845
Ar  5.186813  0.897081  10.923359
Ar  7.794678  3.805138  10.395416
Ar  8.420728  0.420529  11.990566
Ar  5.470117  2.290306  14.113755
Ar  4.749836  6.506271  16.363716
Ar  7.004970  8.605755  14.939260
Ar  7.768178  5.174970  0.813755
Ar  5.620806  10.503504  1.358940
Ar  4.712675  7.337149  3.549100
Ar  7.201549  9.067296  5.186472
Ar  7.662255  7.421899  8.381352
Ar  5.330381  10.793446  8.043360
Ar  6.031768  6.251887  12.538113
Ar  9.396267  10.033617  10.711366
Ar  9.249903  5.162667  13.821040
Ar  5.687399  9.985637  11.896505
Ar  4.860245  12.423681  14.961325
Ar  7.413087  15.166903  14.688910
Ar  9.439981  11.477119  0.158034
Ar  7.685452  14.577856  1.037629
Ar  6.538896  12.377184  4.147163
Ar  7.598518  15.576642  5.539753
Ar  9.467704  11.949849  7.383644
Ar  4.933698  14.345608  8.147752
Ar  5.298556  13.592268  11.597608
Ar  8.593093  14.593489  10.418676
Ar  8.583303  11.400475  13.607397
Ar  2.967606  15.690092  14.880963
Ar  11.400527  0.621449  17.153845
Ar  11.465051  4.286226  16.740429
Ar  14.191478  1.926287  2.076437
Ar  11.120440  3.598924  3.309063
Ar  12.438608  0.611172  4.675836
Ar  14.329971  3.655058  5.243786
Ar  14.221828  1.385197  8.074476
Ar  10.951875  4.633231  6.865218
Ar  11.222949  3.034174  9.790816
Ar  14.925757  2.416760  12.000932
Ar  15.620370  16.791919  14.724071
Ar  11.483198  2.245001  13.429640
Ar  9.756198  7.986831  0.088611
Ar  12.762550  7.491650  15.845881
Ar  14.092322  5.720424  1.840583
Ar  12.406410  9.400191  1.913492
Ar  11.614747  6.985869  4.144355
Ar  14.449854  8.809442  5.584277
Ar  13.741065  5.611766  8.408107
Ar  10.933734  8.545350  7.674874
Ar  10.189186  6.231983  10.539687
Ar  13.830585  9.029731  11.173099
Ar  12.793435  5.125547  12.778528
Ar  10.695347  8.782743  13.646798
Ar  12.513277  11.500259  15.453614
Ar  13.964834  15.122791  0.354145
Ar  13.981473  12.441854  2.414135
Ar  11.177076  14.885079  2.972564
Ar  10.210189  11.468913  3.806699
Ar  15.507459  15.649140  4.152903
Ar  13.121903  12.022690  6.985341
Ar  11.879009  15.617618  7.581300
Ar  11.512194  12.700658  10.811519
Ar  12.096762  16.658456  11.137734
Ar  14.222100  13.282609  12.859800
Ar  11.020265  14.624557  14.569477
108
Frame 52 box=17.158430
Ar  0.291883  0.289626  0.358218
Ar  3.011837  3.282003  16.017247
Ar  2.382324  16.986619  3.785129
Ar  0.401323  3.349927  2.150143
Ar  16.796243  1.201380  5.338955
Ar  2.338452  3.293816  5.095720
Ar  2.598481  0.050690  7.428682
Ar  0.147996  4.518172  7.849810
Ar  15.744789  16.046964  10.549481
Ar  0.888219  1.951408  9.825308
Ar  0.709868  2.073864  14.035396
Ar  14.738306  3.236474  15.927354
Ar  16.935686  7.439228  15.173594
Ar  2.917260  8.887517  14.514317
Ar  1.758999  6.745362  1.088181
Ar  16.219829  9.365500  2.888234
Ar  0.768759  6.279892  4.869300
Ar  3.126933  10.365619  5.051935
Ar  3.637643  7.274823  7.399812
Ar  16.852900  8.826156  8.226338
Ar  16.890883  6.322981  11.378209
Ar  2.043963  9.142333  11.218822
Ar  2.401019  5.216005  13.143381
Ar  16.160966  10.629201  13.446285
Ar  15.494783  10.426610  16.848706
Ar  3.808757  13.520558  1.333139
Ar  2.165820  10.254878  0.437216
Ar  0.368168  12.891972  2.501030
Ar  16.938206  12.210946  5.830245
Ar  3.239298  13.864548  5.499838
Ar  2.034860  11.993678  8.503242
Ar  16.727318  15.441869  7.294262
Ar  15.839503  11.918311  9.897503
Ar  2.132190  15.934219  10.824424
Ar  2.301872  11.997266  13.048008
Ar  0.710292  13.637965  16.193063
Ar  4.695438  0.280037  0.521876
Ar  7.891078  1.820780  16.927368
Ar  8.571733  1.258112  3.515986
Ar  5.109510  3.077164  2.227007
Ar  5.576963  1.706309  5.722747
Ar  7.310447  4.595224  4.638020
Ar  8.543952  0.793920  8.047200
Ar  3.463476  4.350996  9.670250
Ar  5.484542  16.952298  10.385209
Ar  7.532930  3.728414  10.858366
Ar  8.420728  0.420529  11.990566
Ar  5.894954  2.096196  14.062553
Ar  4.688022  6.309637  16.457566
Ar  6.811472  8.635922  15.300303
Ar  7.976441  5.182411  0.735610
Ar  5.814344  10.521201  1.551168
Ar  4.901190  6.837794  3.675252
Ar  7.319555  9.305893  5.678852
Ar  7.291227  7.183300  8.936756
Ar  5.414521  11.056867  8.341165
Ar  5.663638  6.113497  12.770595
Ar  9.396267  10.033617  10.711366
Ar  8.706594  5.117972  13.988149
Ar  5.995549  9.964596  12.052694
Ar  4.965945  11.893419  15.482209
Ar  7.519882  15.364065  14.808766
Ar  9.577683  11.560256  0.607501
Ar  7.467731  14.429986  1.300462
Ar  6.309026  12.610637  4.574192
Ar  7.692437  15.440352  5.405217
Ar  9.098592  12.688035  7.469771
Ar  5.654503  14.486403  8.058231
Ar  5.358131  13.663280  12.026497
Ar  8.297519  14.271380  10.644574
Ar  8.853880  11.771016  14.288617
Ar  2.458036  16.156835  14.770728
Ar  11.312732  0.643613  17.102997
Ar  11.306398  4.595529  16.547134
Ar  14.020378  2.367493  2.233882
Ar  10.550208  3.629419  2.794000
Ar  11.706196  0.961294  5.003050
Ar  14.382290  3.748755  5.696331
Ar  14.207723  1.300262  8.429954
Ar  10.120512  4.029438  6.959779
Ar  11.409736  3.134046  10.212827
Ar  14.887734  2.492498  11.866885
Ar  15.141436  16.508594  14.751320
Ar  11.117861  2.441847  13.732442
Ar  9.696971  7.753925  0.254360
Ar  13.487421  7.700822  15.830688
Ar  14.866106  5.812617  1.355774
Ar  12.866123  8.998822  1.936528
Ar  11.828394  6.491365  4.608619
Ar  14.272520  8.930064  6.072856
Ar  13.778477  6.023358  8.676873
Ar  11.371966  8.189473  7.645990
Ar  10.309035  6.557944  10.579802
Ar  13.720060  9.369622  11.055792
Ar  13.176056  5.275665  13.198849
Ar  10.331315  8.207120  13.872635
Ar  12.681444  11.630513  14.984099
Ar  14.448026  15.082528  0.705710
Ar  13.915635  12.001515  2.702683
Ar  10.926732  15.356613  3.161404
Ar  10.854855  11.486820  4.357203
Ar  15.034348  14.918444  4.502677
Ar  12.950942  12.180464  7.494958
Ar  11.751960  15.239900  7.028226
Ar  11.565980  12.704423  10.623472
Ar  11.571245  17.012561  10.563019
Ar  14.356350  13.538737  12.623991
Ar  11.171832  14.670559  14.779036
108
Frame 53 box=17.158430
Ar  0.393088  16.778432  0.459819
Ar  2.954760  2.484140  16.320479
Ar  2.486537  16.838835  3.652323
Ar  0.868179  3.158583  2.079880
Ar  16.796243  1.201380  5.338955
Ar  2.470845  3.254313  5.174570
Ar  2.886755  0.205543  7.634157
Ar  0.427332  5.350077  7.736020
Ar  15.511561  15.310640  10.099827
Ar  0.570297  1.765074  9.712773
Ar  0.608760  1.321048  13.591571
Ar  15.030332  3.718517  16.192215
Ar  16.614480  6.969814  15.130376
Ar  3.038696  8.549519  14.461490
Ar  1.392821  7.096588  0.988017
Ar  16.246015  9.156036  3.198408
Ar  0.333351  5.778222  4.276980
Ar  3.021328  9.914669  4.744689
Ar  3.550819  7.816560  7.618602
Ar  0.063212  8.842866  7.856917
Ar  16.375256  6.236375  11.149554
Ar  1.964854  8.891550  10.974677
Ar  1.912883  5.040992  13.168321
Ar  16.204300  10.413518  13.333241
Ar  15.494783  10.426610  16.848706
Ar  3.808757  13.520558  1.333139
Ar  1.697943  10.467127  0.920830
Ar  0.329011  13.498231  2.573066
Ar  16.720650  11.583159  5.674591
Ar  3.239298  13.864548  5.499838
Ar  2.429714  11.838044  8.435970
Ar  17.031944  15.157862  6.858766
Ar  16.412856  11.588090  10.048430
Ar  2.588343  15.456562  10.921696
Ar  1.427327  12.688847  12.832447
Ar  17.155196  13.427474  16.257379
Ar  4.816556  16.901633  1.045632
Ar  7.726648  1.420558  0.092422
Ar  8.571733  1.258112  3.515986
Ar  4.842440  3.066660  2.349736
Ar  5.535781  1.488398  5.518404
Ar  7.287020  4.803252  4.867259
Ar  8.954563  0.581885  7.910900
Ar  3.724436  4.044232  10.009717
Ar  5.543268  0.081887  10.599518
Ar  6.969843  3.439267  10.752373
Ar  8.626837  0.387955  12.439156
Ar  5.674643  1.591618  14.057642
Ar  4.231519  6.038606  16.445842
Ar  7.239040  8.554566  15.663205
Ar  7.999144  5.046488  0.483825
Ar  5.401422  10.001257  2.155237
Ar  4.644205  6.527395  3.234244
Ar  7.441628  8.717110  5.108635
Ar  6.691796  7.349957  9.335763
Ar  5.764670  10.652808  8.003359
Ar  5.486509  5.705379  12.834707
Ar  9.124118  9.880615  10.065325
Ar  8.762865  5.319226  13.891789
Ar  5.741380  9.585831  12.011221
Ar  5.017916  11.975173  15.575044
Ar  7.023377  15.205566  14.891275
Ar  10.292472  11.380905  0.125939
Ar  7.483826  14.288889  1.146646
Ar  6.519752  12.356060  4.557594
Ar  7.620411  15.559609  5.130711
Ar  9.250666  12.574978  7.484862
Ar  5.514148  14.302171  8.077702
Ar  5.009730  13.314963  12.125856
Ar  8.127548  13.810244  10.602449
Ar  8.931243  11.665506  13.748903
Ar  2.673626  15.510670  14.852016
Ar  11.312732  0.643613  17.102997
Ar  11.637175  4.648894  16.409549
Ar  14.300126  1.567844  1.827160
Ar  10.400729  3.829933  2.782238
Ar  12.342009  0.906128  5.076427
Ar  14.404267  3.667692  5.782572
Ar  13.986217  1.437457  8.365079
Ar  10.461300  4.101788  6.724028
Ar  11.288794  3.119579  10.191207
Ar  14.887734  2.492498  11.866885
Ar  14.930083  16.996274  15.118737
Ar  11.585267  2.021920  13.663393
Ar  10.245532  7.663375  0.101889
Ar  13.487421  7.700822  15.830688
Ar  14.350304  6.074082  1.691242
Ar  12.898781  9.103314  1.888952
Ar  11.828394  6.491365  4.608619
Ar  13.631720  9.149150  5.948495
Ar  13.887709  6.008464  8.650756
Ar  10.271835  8.004845  7.208643
Ar  10.581553  6.752049  10.680844
Ar  13.346790  9.324418  11.690981
Ar  13.176420  5.527519  12.822445
Ar  10.746741  8.427858  14.011008
Ar  12.825401  11.448937  14.564180
Ar  14.147262  14.876795  0.424881
Ar  13.915635  12.001515  2.702683
Ar  11.192121  14.621620  1.826396
Ar  10.590045  10.832284  4.126338
Ar  14.628588  15.307321  4.235741
Ar  13.788848  12.575007  7.725629
Ar  11.882192  15.353541  7.096381
Ar  11.612526  12.605228  10.505204
Ar  11.687225  16.504301  10.780033
Ar  14.585298  13.954868  13.077430
Ar  11.213940  14.524101  14.786971
108
Frame 54 box=17.158430
Ar  0.395589  16.964367  17.113760
Ar  2.954760  2.484140  16.320479
Ar  2.430118  16.806178  3.636435
Ar  0.860805  3.246057  1.996468
Ar  16.646283  0.944070  5.047279
Ar  2.515085  2.900957  5.143695
Ar  3.204931  0.526444  8.113837
Ar  0.529255  5.301348  7.963761
Ar  15.643811  15.207624  10.050442
Ar  0.546842  2.265252  9.279862
Ar  1.075316  1.882662  13.038948
Ar  15.486978  3.860540  16.165980
Ar  16.548208  6.870691  14.712636
Ar  2.474288  8.627823  14.240821
Ar  0.911337  6.991294  1.266958
Ar  16.400953  8.990423  3.383086
Ar  17.027435  5.546517  4.504132
Ar  2.667877  9.842381  4.789655
Ar  3.540189  7.609151  7.515994
Ar  0.063212  8.842866  7.856917
Ar  16.477167  6.823502  11.043693
Ar  2.205579  9.052263  10.961341
Ar  2.252146  5.145453  14.004394
Ar  16.190633  10.030022  13.162948
Ar  15.589713  9.997202  0.130275
Ar  3.941824  13.349692  1.488132
Ar  1.901196  10.786325  0.487108
Ar  0.259345  13.861011  2.789188
Ar  16.720650  11.583159  5.674591
Ar  2.971426  13.610289  5.275895
Ar  2.381866  12.025742  8.571955
Ar  0.253598  14.851010  6.895245
Ar  15.635359  11.715180  9.831736
Ar  2.017945  14.756267  10.448720
Ar  1.837118  12.038965  12.885341
Ar  0.180361  13.363339  16.114268
Ar  4.961393  16.683343  0.861575
Ar  7.726648  1.420558  0.092422
Ar  8.493400  0.887666  3.392005
Ar  5.315998  3.215434  2.122169
Ar  5.924559  1.028583  5.596134
Ar  7.779386  4.486824  4.815743
Ar  8.375347  0.396574  8.593151
Ar  3.809570  4.164352  10.145329
Ar  5.404077  0.244599  10.643128
Ar  7.367128  3.410804  10.819051
Ar  8.626837  0.387955  12.439156
Ar  5.657183  1.209221  14.347506
Ar  4.163606  6.014087  16.951179
Ar  6.661306  8.733621  15.258661
Ar  8.090789  4.873050  0.937951
Ar  5.922308  9.822356  2.043279
Ar  4.480113  6.889213  3.616651
Ar  7.257124  8.806331  5.284997
Ar  6.633829  7.157763  9.931070
Ar  5.808921  10.722242  8.195486
Ar  5.609180  5.272338  13.464918
Ar  9.027659  10.164948  9.812106
Ar  9.186044  4.958531  14.077573
Ar  5.802578  9.943997  12.055245
Ar  4.782902  11.570316  15.630804
Ar  6.915580  14.822909  14.801417
Ar  10.340055  11.651330  0.443532
Ar  7.793228  13.885063  1.144816
Ar  5.939705  12.169822  4.515738
Ar  7.668284  15.053497  4.866642
Ar  9.808902  12.884910  7.089884
Ar  6.029488  14.635774  8.151829
Ar  5.009730  13.314963  12.125856
Ar  8.368941  13.581673  10.546380
Ar  9.150070  11.392543  14.086694
Ar  3.022904  15.139581  14.867074
Ar  11.312732  0.643613  17.102997
Ar  11.847381  4.360683  16.418865
Ar  14.649442  1.475660  1.518909
Ar  10.884913  3.542256  2.813115
Ar  12.009361  1.212436  4.935195
Ar  14.148679  4.116414  5.583900
Ar  14.407092  1.248101  8.105765
Ar  10.564872  4.187959  7.367363
Ar  11.096127  3.211746  10.551627
Ar  14.701963  2.458796  11.717840
Ar  14.061384  0.070054  15.056937
Ar  11.585267  2.021920  13.663393
Ar  10.096231  7.530468  16.947802
Ar  13.409446  7.668816  15.897568
Ar  14.024009  5.568372  1.854063
Ar  12.369545  9.180799  2.063033
Ar  11.799608  6.483497  4.571170
Ar  13.935065  9.086723  6.224141
Ar  13.789465  6.040010  8.951665
Ar  10.453500  8.190383  7.327387
Ar  10.469188  6.698501  10.720931
Ar  13.374081  9.125278  11.574199
Ar  13.130398  5.458065  13.029179
Ar  10.662676  8.400816  13.644642
Ar  13.034837  11.142203  14.547965
Ar  14.105912  14.775999  0.334181
Ar  14.226792  12.025152  2.633851
Ar  10.792099  14.692375  2.218044
Ar  10.602161  11.199036  4.233083
Ar  14.474140  14.894087  4.748119
Ar  13.387462  12.798067  7.379052
Ar  11.967288  15.737821  7.460831
Ar  11.520845  12.506779  11.202743
Ar  12.401592  16.681799  10.561268
Ar  15.155918  13.556370  13.038734
Ar  11.094550  15.106588  14.522820
108
Frame 55 box=17.158430
Ar  17.158139  17.034640  0.348277
Ar  2.533992  1.859266  16.263091
Ar  2.334306  17.112774  2.975674
Ar  0.419041  2.949767  2.092563
Ar  16.575045  0.806845  5.022238
Ar  2.906544  3.056044  4.981334
Ar  2.557077  0.539180  7.233678
Ar  0.878775  5.340707  7.698395
Ar  15.191441  15.303398  10.051640
Ar  0.317086  2.497078  9.788788
Ar  1.075316  1.882662  13.038948
Ar  15.373631  3.288606  15.850323
Ar  16.531740  6.832943  14.667062
Ar  2.889834  8.529270  14.510162
Ar  1.033828  6.944165  1.061818
Ar  16.174310  8.656256  3.849287
Ar  16.985853  5.486069  4.538182
Ar  2.355223  9.568946  5.172432
Ar  3.540189  7.609151  7.515994
Ar  16.878471  8.964088  8.617524
Ar  16.193589  6.372587  11.198927
Ar  2.714755  9.196080  10.521054
Ar  2.101397  5.174938  14.035395
Ar  16.080765  10.079974  13.121253
Ar  15.439275  9.869159  0.479404
Ar  3.943608  13.335166  1.386948
Ar  2.158479  10.294229  1.340048
Ar  0.056184  14.013746  2.731167
Ar  16.658316  12.081266  5.814345
Ar  2.976709  14.049321  5.432329
Ar  1.914878  12.168699  8.538235
Ar  17.152400  15.406960  7.311722
Ar  15.144267  11.769676  10.107167
Ar  1.510075  15.146870  11.051189
Ar  1.837118  12.038965  12.885341
Ar  0.417603  12.939077  16.180152
Ar  5.136005  16.508468  1.204875
Ar  7.620358  1.401904  17.000488
Ar  8.417473  0.916337  3.058525
Ar  4.664857  3.015465  1.948023
Ar  5.602058  0.409912  5.339417
Ar  6.414566  4.056203  5.793037
Ar  8.666364  0.277348  7.981991
Ar  4.123155  4.343294  10.508420
Ar  5.215938  17.101270  10.745597
Ar  7.488225  3.042014  10.937667
Ar  8.827699  16.830157  12.230543
Ar  5.069781  0.916185  14.036416
Ar  4.613424  6.200640  16.945812
Ar  7.322021  8.331476  15.188898
Ar  7.572556  5.428657  1.806194
Ar  6.023636  8.918808  1.892513
Ar  4.149341  6.436958  4.322028
Ar  7.623918  8.708248  5.675808
Ar  6.856077  6.904307  9.955023
Ar  5.525855  10.521969  8.066082
Ar  5.831143  5.044072  13.439402
Ar  9.027659  10.164948  9.812106
Ar  9.431695  5.009023  14.330961
Ar  5.904583  10.012444  11.913013
Ar  5.117516  11.116121  15.584492
Ar  6.969562  15.038357  14.567606
Ar  9.944987  11.180015  0.470605
Ar  7.498075  14.286025  0.814174
Ar  5.819710  12.248055  4.445428
Ar  8.141099  15.135403  4.848114
Ar  9.491511  12.876262  7.146102
Ar  5.385091  14.344386  8.512830
Ar  5.145969  13.494933  11.872631
Ar  8.607502  13.474352  10.441941
Ar  8.824844  11.373218  14.036798
Ar  2.813993  15.713875  15.188299
Ar  11.321035  0.274329  0.164823
Ar  12.003183  4.387946  16.804806
Ar  14.261335  1.733257  2.094412
Ar  11.017171  3.365847  3.130742
Ar  11.871068  0.515811  4.697236
Ar  13.901883  4.128629  5.665138
Ar  14.383120  1.186870  8.006380
Ar  10.300476  4.658082  7.055166
Ar  11.063681  2.785972  10.409990
Ar  14.988903  2.336480  12.241392
Ar  14.418567  17.104663  15.118626
Ar  11.286417  1.791381  13.832517
Ar  10.210805  7.452057  0.043609
Ar  13.203095  7.724079  15.628484
Ar  14.483065  6.066360  1.413446
Ar  12.424132  9.100260  1.913800
Ar  11.370032  6.827101  4.263260
Ar  14.125045  8.074224  6.771991
Ar  13.573223  5.678521  9.152042
Ar  10.757172  8.421986  7.514418
Ar  10.489503  6.237436  10.543665
Ar  13.060659  8.809490  11.384098
Ar  12.919706  5.385799  13.051578
Ar  10.662676  8.400816  13.644642
Ar  12.647801  11.376108  14.673456
Ar  14.197137  14.436657  0.440850
Ar  14.282601  11.838266  3.340198
Ar  10.969538  14.261904  2.147449
Ar  11.013467  11.317446  4.373807
Ar  14.072874  15.153826  4.205607
Ar  13.626829  12.616352  6.942801
Ar  11.967288  15.737821  7.460831
Ar  12.062805  13.075272  11.513187
Ar  12.457797  16.722668  11.296539
Ar  15.465402  13.890061  13.432278
Ar  10.747715  15.039113  14.632208
108
Frame 56 box=17.158430
Ar  16.808999  16.732377  0.269459
Ar  2.330677  1.636135  16.686434
Ar  2.479739  16.747187  3.685288
Ar  0.369213  2.879154  2.124002
Ar  16.333358  1.011633  4.778245
Ar  2.906544  3.056044  4.981334
Ar  3.173713  0.322725  7.849287
Ar  17.025383  5.249517  8.089328
Ar  15.371778  15.513226  9.833493
Ar  0.288252  1.297251  9.306196
Ar  0.480927  1.668954  13.349435
Ar  15.173637  3.621840  15.849744
Ar  16.532477  6.897428  14.870250
Ar  2.528346  8.259096  14.636943
Ar  1.260970  6.923755  0.984902
Ar  16.427071  8.794876  3.943814
Ar  0.074238  5.341898  4.485075
Ar  2.791302  9.810493  5.109932
Ar  3.571493  6.880840  7.824677
Ar  16.894645  9.325481  8.196798
Ar  16.464120  6.036005  11.597919
Ar  2.552870  9.201698  10.771193
Ar  2.385906  4.583492  14.208586
Ar  15.905616  9.977241  13.459799
Ar  15.825622  9.774666  16.927452
Ar  3.943608  13.335166  1.386948
Ar  1.923596  10.518444  0.700685
Ar  0.455325  13.821079  2.791928
Ar  16.801100  11.944232  5.645344
Ar  2.907854  13.632883  5.316980
Ar  1.674488  12.378132  9.206780
Ar  0.047143  15.424247  6.858453
Ar  15.568946  11.751042  10.620058
Ar  1.841322  15.502391  11.066390
Ar  1.827343  12.381367  13.070114
Ar  17.092102  13.134589  16.150188
Ar  4.897317  16.706814  0.803807
Ar  7.809810  0.942956  16.726558
Ar  8.667814  1.042018  3.432934
Ar  4.664857  3.015465  1.948023
Ar  5.547031  0.562743  5.309751
Ar  5.981955  4.474198  6.671161
Ar  8.558532  0.981981  8.274199
Ar  2.871300  3.401388  10.522869
Ar  5.512813  0.310328  10.293062
Ar  7.370095  3.489771  10.259768
Ar  8.717131  0.078414  11.850970
Ar  4.893431  1.120777  13.906448
Ar  4.820641  5.855068  16.909813
Ar  7.322021  8.331476  15.188898
Ar  7.857981  4.987988  1.625464
Ar  6.532125  9.069905  1.891371
Ar  4.054338  6.292900  3.522423
Ar  7.154185  7.751717  5.773488
Ar  7.365114  6.858201  9.266716
Ar  5.693416  10.576983  8.327965
Ar  5.551473  5.687229  13.565191
Ar  9.251668  10.009679  10.527273
Ar  8.696450  4.612679  14.677817
Ar  5.909490  8.980017  12.131240
Ar  4.734037  11.157533  15.867076
Ar  6.423136  14.636673  15.212247
Ar  9.367245  11.547609  0.301573
Ar  7.401807  14.177649  1.542587
Ar  6.229413  11.805132  4.308666
Ar  8.141099  15.135403  4.848114
Ar  9.656900  12.543190  7.409054
Ar  5.909698  14.643332  7.601243
Ar  5.048812  13.246425  10.786584
Ar  8.622459  14.199974  10.442153
Ar  8.659592  11.651153  13.663703
Ar  3.115021  15.427045  15.241050
Ar  11.354884  0.058673  17.037637
Ar  11.742909  4.317735  16.919473
Ar  14.013369  1.895635  1.804102
Ar  11.071440  3.584544  3.097034
Ar  12.243031  0.824303  5.116842
Ar  13.959437  4.068778  5.593849
Ar  14.038127  1.106540  8.125610
Ar  10.100530  4.029323  7.627942
Ar  11.366314  2.822977  10.634421
Ar  14.694090  2.646097  12.205720
Ar  14.352496  0.025971  14.653135
Ar  11.167927  1.832358  14.067619
Ar  9.725549  7.753761  0.403690
Ar  12.931776  7.602829  15.939358
Ar  14.831913  6.051641  1.299326
Ar  12.359091  9.190093  1.853928
Ar  11.762293  6.842986  4.291735
Ar  14.221150  8.633574  6.480865
Ar  13.731844  5.262066  9.241933
Ar  10.752266  8.578101  7.730010
Ar  10.489503  6.237436  10.543665
Ar  13.524797  8.498779  10.812782
Ar  13.123806  5.325623  13.400775
Ar  10.582868  8.189451  13.796237
Ar  12.611919  11.350148  14.967754
Ar  13.873531  14.852789  0.503967
Ar  14.282601  11.838266  3.340198
Ar  10.969538  14.261904  2.147449
Ar  10.547423  11.284545  4.405892
Ar  14.251971  15.337195  4.666409
Ar  13.338745  12.866596  6.897826
Ar  11.415413  15.712021  8.439369
Ar  11.682883  13.155801  11.252208
Ar  12.649436  16.847534  11.531265
Ar  15.467828  14.069033  13.137463
Ar  10.569971  14.724492  14.444281
108
Frame 57 box=17.158430
Ar  17.005655  16.553605  0.681101
Ar  2.625970  2.251965  16.729096
Ar  2.520119  16.525137  3.507209
Ar  0.289575  2.788741  2.443458
Ar  16.914191  1.279802  5.425225
Ar  2.578887  3.222963  5.300006
Ar  2.717934  0.400670  7.758124
Ar  16.892294  5.629675  7.830446
Ar  15.620995  15.523639  9.978343
Ar  17.010572  2.403111  9.216443
Ar  0.346407  1.221390  13.137002
Ar  15.930697  3.008899  15.699740
Ar  16.172267  6.643007  14.610071
Ar  3.070056  8.257152  14.366447
Ar  0.770199  6.194219  0.629604
Ar  17.013308  9.051647  3.292585
Ar  0.325660  6.051770  4.294371
Ar  2.844716  9.661900  5.549309
Ar  3.170797  6.565172  7.884326
Ar  0.005565  9.293605  8.752241
Ar  16.933212  6.542505  11.272872
Ar  2.690862  8.952771  10.636039
Ar  2.026837  4.717318  14.054947
Ar  16.386477  9.893141  13.601922
Ar  15.686574  9.374042  0.068676
Ar  3.825013  13.674053  1.209339
Ar  2.663411  9.933129  0.738817
Ar  0.402418  13.461883  2.351779
Ar  16.548510  12.023399  6.050819
Ar  2.696428  13.350852  5.780025
Ar  1.193948  12.597037  9.017801
Ar  0.047143  15.424247  6.858453
Ar  15.440085  12.004232  10.724809
Ar  2.148581  15.991770  11.305457
Ar  2.085140  12.203278  12.616308
Ar  16.949201  12.953777  16.292851
Ar  4.963732  17.048448  0.874864
Ar  7.868005  0.639534  16.323055
Ar  8.586866  0.996709  3.574045
Ar  5.406678  2.749924  2.836548
Ar  5.498692  0.534369  5.495957
Ar  6.005819  4.745009  6.733000
Ar  9.082584  0.177232  8.217038
Ar  3.234770  3.609223  10.343467
Ar  5.512813  0.310328  10.293062
Ar  6.979699  3.391971  10.530174
Ar  8.814775  0.703067  13.043082
Ar  5.551048  1.807153  13.940798
Ar  4.294296  5.670273  16.752368
Ar  7.536280  8.554923  15.569722
Ar  7.720819  4.911081  1.458044
Ar  6.166965  9.019290  1.349839
Ar  4.039081  6.914688  3.374652
Ar  7.699261  7.990642  5.750957
Ar  7.747705  6.825604  9.176741
Ar  5.618990  9.824079  8.679990
Ar  5.589082  5.448402  12.855780
Ar  9.744472  9.946255  10.192324
Ar  9.000019  4.910145  14.783814
Ar  6.111403  9.123033  12.146078
Ar  4.917983  11.250571  15.520044
Ar  6.393886  15.110818  14.416015
Ar  9.202791  11.547097  17.132836
Ar  7.339644  14.181339  1.264511
Ar  6.073709  11.273827  4.928139
Ar  8.121578  14.806140  5.108712
Ar  9.385124  12.644632  7.350512
Ar  5.567631  14.424627  7.717265
Ar  5.148839  12.539114  11.493203
Ar  8.201680  14.483170  10.102545
Ar  8.725736  12.053854  13.252911
Ar  2.714250  15.094010  14.870518
Ar  11.082821  0.254493  0.074495
Ar  11.742909  4.317735  16.919473
Ar  14.058346  1.803304  2.461703
Ar  11.071440  3.584544  3.097034
Ar  11.739675  0.948774  5.401261
Ar  14.460360  4.141412  5.714740
Ar  14.110298  1.160844  8.019059
Ar  9.943526  4.440865  7.212164
Ar  11.366314  2.822977  10.634421
Ar  14.694090  2.646097  12.205720
Ar  14.352496  0.025971  14.653135
Ar  11.645657  2.143189  14.111699
Ar  9.648563  7.541480  0.695163
Ar  12.745339  7.600385  16.100603
Ar  14.551440  5.941274  1.814619
Ar  12.359091  9.190093  1.853928
Ar  11.629314  6.470963  4.774504
Ar  14.667572  8.424523  5.890855
Ar  13.873443  4.897828  9.641342
Ar  11.187386  8.603312  7.383202
Ar  10.747515  6.378046  10.880032
Ar  13.964256  8.456400  10.833556
Ar  13.123806  5.325623  13.400775
Ar  10.391727  8.347285  13.464526
Ar  12.654275  11.001635  14.967795
Ar  13.918295  14.634376  17.067604
Ar  14.258695  11.998652  2.352839
Ar  11.059660  14.293777  2.383536
Ar  10.082801  10.999200  4.304775
Ar  14.476518  15.130119  4.593427
Ar  12.994959  11.910693  7.473833
Ar  11.948458  15.263646  8.061798
Ar  12.108291  13.503800  11.375830
Ar  12.649436  16.847534  11.531265
Ar  15.882142  14.395358  13.375492
Ar  10.743999  14.755693  14.425116
108
Frame 58 box=17.158430
Ar  0.306422  17.023718  0.269953
Ar  2.996848  2.056807  16.590259
Ar  1.968288  16.171637  3.181100
Ar  0.660933  3.097035  1.825475
Ar  16.646458  1.788439  5.948561
Ar  2.584584  2.658266  5.314352
Ar  3.096747  0.730202  8.542706
Ar  16.873142  5.422786  7.887129
Ar  15.799262  15.955509  9.980336
Ar  17.082346  2.745933  9.526740
Ar  0.783466  1.004321  12.919121
Ar  15.643662  2.951929  15.956177
Ar  15.931175  6.736080  14.646042
Ar  3.175266  7.797727  14.706514
Ar  1.004171  6.424251  0.516542
Ar  16.774337  9.464649  3.828678
Ar  0.525780  5.650424  4.399091
Ar  2.754263  10.276302  6.174158
Ar  3.149731  6.821620  7.641427
Ar  16.662529  9.243409  8.520272
Ar  16.933212  6.542505  11.272872
Ar  2.895665  8.647236  10.877617
Ar  1.932306  4.423213  14.218625
Ar  16.832160  9.720506  13.471077
Ar  15.686574  9.374042  0.068676
Ar  4.003127  13.296160  0.763809
Ar  2.733143  9.748325  0.361143
Ar  0.874133  12.312499  2.371286
Ar  16.912042  12.254540  6.002833
Ar  3.394559  13.641096  4.724837
Ar  1.193948  12.597037  9.017801
Ar  0.928282  15.523774  6.885017
Ar  15.049021  11.860921  9.938267
Ar  2.291687  15.444108  11.077293
Ar  1.879459  11.990376  12.749918
Ar  16.949201  12.953777  16.292851
Ar  4.768523  16.879798  1.445680
Ar  7.852019  0.637051  16.287436
Ar  8.586866  0.996709  3.574045
Ar  4.945044  3.048331  2.650549
Ar  5.245647  0.463266  5.060784
Ar  5.986201  4.033556  6.264802
Ar  8.907783  0.338907  8.152353
Ar  3.353707  3.462337  10.592325
Ar  5.399677  0.312302  11.157472
Ar  7.816037  3.496258  10.819440
Ar  8.907470  0.296017  13.046497
Ar  5.388093  2.731460  14.276098
Ar  5.115780  5.658597  16.522896
Ar  7.265225  8.693854  15.338959
Ar  7.787506  4.933793  2.221701
Ar  6.368853  9.427369  1.555580
Ar  3.465927  7.411695  3.714735
Ar  7.690795  7.908135  5.762832
Ar  7.419042  6.764701  9.105934
Ar  5.805412  10.011743  8.624871
Ar  5.549884  5.594258  12.684088
Ar  9.751183  10.037280  10.454714
Ar  8.863933  4.829729  14.631133
Ar  6.111403  9.123033  12.146078
Ar  4.539689  11.243371  15.042800
Ar  6.300043  14.932822  13.996779
Ar  9.487498  11.537492  16.827199
Ar  7.433537  14.209244  1.067554
Ar  5.980553  11.209831  5.163783
Ar  6.954312  14.317105  4.377584
Ar  9.180824  12.687708  7.406311
Ar  4.857523  14.091623  8.064171
Ar  5.115606  12.797278  11.484335
Ar  8.017033  14.947114  10.564418
Ar  8.650458  11.818528  13.471479
Ar  2.714250  15.094010  14.870518
Ar  11.056107  0.705570  0.566361
Ar  11.742909  4.317735  16.919473
Ar  14.396305  1.616809  2.556443
Ar  11.071440  3.584544  3.097034
Ar  11.543132  1.139801  5.617630
Ar  14.163202  3.989427  5.649434
Ar  13.938571  1.279920  8.319111
Ar  9.936595  4.186831  7.030708
Ar  11.077408  2.627285  9.832647
Ar  14.579278  2.324863  11.852637
Ar  14.633778  17.067138  14.564737
Ar  11.642298  2.251637  14.246088
Ar  9.723059  7.646514  0.637047
Ar  12.745339  7.600385  16.100603
Ar  14.413239  5.492469  2.254225
Ar  12.568996  8.738775  2.568535
Ar  11.333527  6.674854  4.715957
Ar  14.634982  7.924332  5.646446
Ar  13.873443  4.897828  9.641342
Ar  11.906599  8.275728  8.034528
Ar  10.405247  6.065614  10.561039
Ar  13.936933  8.333317  11.100059
Ar  13.257009  5.396013  13.020237
Ar  10.391727  8.347285  13.464526
Ar  12.746235  11.025708  14.233252
Ar  13.905440  15.150060  0.151804
Ar  14.340330  12.637137  2.671481
Ar  10.856146  14.844915  3.078652
Ar  9.994591  10.581442  3.998157
Ar  14.640838  15.633066  4.721848
Ar  12.643126  11.512454  6.519954
Ar  11.708528  15.034710  7.702939
Ar  11.487648  13.329381  11.156369
Ar  12.260670  16.895303  11.309534
Ar  16.163744  13.950343  13.000480
Ar  11.209896  15.105835  14.582378
108
Frame 59 box=17.158430
Ar  0.282594  16.812314  0.285172
Ar  3.008427  2.455718  16.254544
Ar  2.100407  16.623089  3.284948
Ar  0.571225  3.162589  2.295544
Ar  16.651989  1.116345  5.450139
Ar  2.584584  2.658266  5.314352
Ar  3.641084  0.748125  8.325923
Ar  16.893980  5.610501  8.055029
Ar  15.868886  15.712279  10.067148
Ar  0.373139  2.179556  9.079581
Ar  0.215134  0.655865  12.814552
Ar  15.381425  3.525977  16.133302
Ar  16.223989  6.677425  14.693702
Ar  3.593631  8.068332  14.590077
Ar  1.162946  6.216982  0.348707
Ar  16.559397  9.363572  3.507621
Ar  0.355229  5.952660  4.582030
Ar  2.739235  9.794209  5.724042
Ar  3.515275  6.471084  6.718821
Ar  16.662529  9.243409  8.520272
Ar  16.768539  5.662740  11.394166
Ar  2.317129  9.197440  11.000830
Ar  1.873926  4.018053  13.203620
Ar  16.555382  9.854820  13.153372
Ar  15.686574  9.374042  0.068676
Ar  4.091108  13.326259  1.329087
Ar  2.531366  10.244211  0.653626
Ar  0.820791  12.773789  2.655850
Ar  16.745355  11.813452  6.417430
Ar  3.394559  13.641096  4.724837
Ar  1.545637  12.242197  9.453316
Ar  0.755242  15.455865  6.958831
Ar  15.278693  11.858840  10.386148
Ar  2.291687  15.444108  11.077293
Ar  2.265123  11.798725  13.104081
Ar  17.042145  12.583549  16.386002
Ar  4.940519  16.762498  1.036399
Ar  7.951189  0.997633  16.545571
Ar  8.241267  1.201979  3.057640
Ar  4.861083  3.176298  2.196511
Ar  5.376167  0.646621  5.017186
Ar  6.373844  4.015830  6.175847
Ar  8.051232  0.887166  7.913281
Ar  3.814991  3.874599  10.138699
Ar  5.399677  0.312302  11.157472
Ar  7.529554  3.333600  11.141724
Ar  9.088684  17.058985  12.823025
Ar  5.853707  1.960064  14.169722
Ar  5.306964  5.827594  17.020868
Ar  7.331115  8.715931  14.942648
Ar  7.570803  5.090952  2.600676
Ar  5.981196  9.740408  1.424082
Ar  3.919174  7.137962  3.199690
Ar  7.023130  7.625932  5.113801
Ar  6.611568  6.289747  9.339807
Ar  5.817529  9.762471  8.425831
Ar  5.149732  5.234825  13.228908
Ar  9.751183  10.037280  10.454714
Ar  8.897814  4.582445  14.848608
Ar  6.306866  9.432887  11.805803
Ar  4.807158  11.453252  15.337419
Ar  6.240889  15.017479  14.426783
Ar  10.818581  11.052110  0.007121
Ar  7.653424  14.406454  1.273882
Ar  5.980553  11.209831  5.163783
Ar  6.618965  14.431111  4.606756
Ar  8.905947  12.394106  7.890678
Ar  4.754717  14.455081  7.906556
Ar  5.115606  12.797278  11.484335
Ar  8.202714  14.671150  10.452728
Ar  8.289606  11.979000  13.650567
Ar  2.904145  14.656203  15.401660
Ar  11.671255  0.415424  0.576985
Ar  11.742909  4.317735  16.919473
Ar  14.396305  1.616809  2.556443
Ar  11.154680  3.818037  3.067853
Ar  11.719540  1.252128  5.326418
Ar  14.389964  4.080934  5.825649
Ar  14.220738  1.132294  7.877851
Ar  9.820097  4.179765  6.875247
Ar  10.928698  2.148974  9.564935
Ar  14.475714  2.227540  12.139327
Ar  14.462914  0.120396  15.236181
Ar  11.677388  1.977985  14.479487
Ar  9.508456  7.472611  0.336725
Ar  12.906673  7.819578  15.695784
Ar  14.630894  6.093304  2.204353
Ar  12.648500  8.990904  2.445032
Ar  10.854992  6.980614  4.895205
Ar  14.634982  7.924332  5.646446
Ar  13.728804  4.827207  9.620383
Ar  11.948949  7.872005  8.073087
Ar  10.337347  6.070204  10.667099
Ar  14.164025  7.908252  11.060528
Ar  13.155381  5.049460  13.383490
Ar  10.231369  8.208613  13.536689
Ar  12.687163  10.899110  13.091221
Ar  14.297019  15.307937  0.889967
Ar  14.232927  12.379920  3.081505
Ar  10.742428  14.638276  2.967538
Ar  10.002728  10.526815  4.384371
Ar  14.097757  15.608396  4.835882
Ar  13.135857  11.674011  6.769431
Ar  11.576277  16.020044  8.105377
Ar  11.651060  13.589431  11.053950
Ar  12.343242  16.939275  11.655503
Ar  16.298704  14.510018  13.531091
Ar  11.848268  14.005419  15.420174
108
Frame 60 box=17.158430
Ar  0.420523  17.107826  16.805988
Ar  2.911758  2.715999  16.621699
Ar  2.165502  16.817905  3.575750
Ar  0.571225  3.162589  2.295544
Ar  16.569497  1.136608  5.403904
Ar  2.670501  3.168234  5.799680
Ar  3.890495  0.952386  8.168965
Ar  16.993052  5.759057  7.894109
Ar  15.210053  15.256245  9.681931
Ar  0.470699  2.304890  9.111079
Ar  0.591559  0.822639  12.942911
Ar  15.747694  3.767938  16.096611
Ar  16.528320  6.816133  14.695096
Ar  3.014047  7.619509  14.546982
Ar  1.429236  6.442040  0.836640
Ar  16.156505  9.492027  3.343084
Ar  0.355229  5.952660  4.582030
Ar  2.316370  9.534407  5.177105
Ar  4.029226  6.974175  7.354112
Ar  16.662529  9.243409  8.520272
Ar  16.768539  5.662740  11.394166
Ar  2.425261  8.822833  10.784962
Ar  1.787232  3.915131  13.623581
Ar  16.555382  9.854820  13.153372
Ar  15.686574  9.374042  0.068676
Ar  4.091108  13.326259  1.329087
Ar  2.197803  10.126989  0.973587
Ar  0.754423  12.991467  2.241208
Ar  16.384575  12.183046  5.967896
Ar  2.819012  13.405661  5.191342
Ar  1.628244  12.284286  9.143583
Ar  0.736527  15.695700  7.285981
Ar  15.035903  11.661736  10.589526
Ar  2.238337  15.508627  11.162261
Ar  2.734837  12.280324  13.142412
Ar  16.792518  12.633937  16.275518
Ar  4.940519  16.762498  1.036399
Ar  8.474876  1.279186  16.855330
Ar  8.475014  0.985208  3.531408
Ar  4.350374  3.220834  2.382318
Ar  5.249040  0.247227  4.782663
Ar  6.752566  3.707480  6.280830
Ar  7.960322  0.389958  7.295236
Ar  3.411737  3.874077  10.225297
Ar  5.940848  16.869479  11.040870
Ar  7.159315  3.049368  10.024856
Ar  9.039018  0.363008  13.047239
Ar  5.619134  1.734604  14.439057
Ar  5.323836  6.104068  17.064032
Ar  7.827547  8.672540  15.447555
Ar  7.694709  5.548751  2.536081
Ar  5.914172  9.559688  1.646828
Ar  3.976955  6.738772  3.480430
Ar  7.201626  7.574548  5.510715
Ar  7.664682  6.600975  9.434543
Ar  6.058217  9.762437  8.409341
Ar  5.413360  5.346116  12.849127
Ar  9.130997  9.976518  10.086688
Ar  8.902862  4.352746  14.227101
Ar  6.053864  8.943160  12.288230
Ar  5.337085  11.387458  15.676493
Ar  6.885638  15.132406  14.511348
Ar  10.288901  10.750518  16.842939
Ar  8.729993  14.225623  0.368630
Ar  6.342841  11.169082  5.027706
Ar  7.852415  14.483992  4.648310
Ar  8.746590  13.059535  7.740852
Ar  5.640949  14.730785  8.032138
Ar  5.507692  12.598778  11.077691
Ar  8.412094  14.501685  11.157316
Ar  9.123546  12.016362  13.599921
Ar  2.755852  15.033752  15.073057
Ar  11.671255  0.415424  0.576985
Ar  12.247616  4.286321  16.991223
Ar  14.122847  2.188793  2.215239
Ar  11.120496  3.767462  3.016588
Ar  11.774220  1.173787  5.641731
Ar  14.088670  4.195975  5.496593
Ar  14.190261  1.203263  8.476534
Ar  10.292292  4.667789  7.416919
Ar  10.726633  1.649326  9.904524
Ar  14.612942  2.385631  11.888930
Ar  14.700993  0.326107  15.239676
Ar  11.923020  1.689739  14.225927
Ar  9.943240  7.107946  0.505138
Ar  12.906673  7.819578  15.695784
Ar  14.381209  5.880944  2.334930
Ar  12.585952  9.049910  1.911037
Ar  10.649808  6.968884  4.843575
Ar  14.275937  8.351414  6.035745
Ar  13.640825  4.878494  9.076813
Ar  11.582255  7.800777  8.366997
Ar  10.173889  5.203349  10.936177
Ar  14.164025  7.908252  11.060528
Ar  12.690970  5.126773  13.245396
Ar  10.283860  8.037187  13.114394
Ar  13.443601  11.712677  13.744197
Ar  14.224533  15.260402  1.105772
Ar  14.022659  12.456489  2.990969
Ar  11.252777  14.884006  3.354751
Ar  10.282465  10.694353  4.309054
Ar  14.097757  15.608396  4.835882
Ar  12.950807  11.675428  7.322478
Ar  11.356576  15.231014  8.173841
Ar  11.884046  13.067479  10.824079
Ar  12.597787  16.212693  12.054224
Ar  15.814238  14.427322  13.147714
Ar  11.747505  14.421147  15.007687
108
Frame 61 box=17.158430
Ar  0.656251  0.132545  0.031809
Ar  2.911758  2.715999  16.621699
Ar  2.408599  16.846572  3.608084
Ar  1.236070  2.742156  2.648857
Ar  16.628777  0.906133  5.292697
Ar  2.186968  3.144668  6.240189
Ar  4.283470  0.881345  8.083337
Ar  16.985372  5.476472  8.097731
Ar  15.079834  15.299064  9.796249
Ar  0.593930  1.849313  9.561259
Ar  0.669193  1.162167  13.343933
Ar  16.225494  3.417242  16.145285
Ar  16.395106  6.738517  14.904146
Ar  2.780624  7.884789  14.597552
Ar  1.072390  6.876453  1.118254
Ar  16.591586  9.393543  3.673537
Ar  0.785315  5.847345  4.572615
Ar  2.258279  9.998909  6.005550
Ar  3.994163  6.778696  7.484010
Ar  16.662529  9.243409  8.520272
Ar  16.478093  5.566771  11.527203
Ar  3.007936  9.388860  9.975663
Ar  2.004255  4.320513  13.415300
Ar  0.242464  10.008325  12.538250
Ar  16.279035  9.729195  17.110106
Ar  4.091108  13.326259  1.329087
Ar  2.790156  10.253420  0.970885
Ar  0.756047  13.761990  2.167867
Ar  16.598054  12.451685  6.245756
Ar  2.992556  13.608100  5.655299
Ar  1.605888  12.750334  9.150513
Ar  0.724293  15.669791  7.420218
Ar  15.035903  11.661736  10.589526
Ar  2.400085  15.885361  10.804804
Ar  2.267183  12.785718  13.269634
Ar  17.120146  12.759707  15.776251
Ar  4.673393  16.852687  0.909356
Ar  7.442690  2.251572  17.135870
Ar  8.990825  0.850047  3.420779
Ar  4.542851  2.977373  2.962662
Ar  5.442902  0.086901  4.554954
Ar  6.892181  3.942111  5.468262
Ar  7.787693  0.025596  7.232170
Ar  3.312960  4.454111  9.945638
Ar  5.730386  16.784365  11.286757
Ar  7.524296  2.738766  10.078382
Ar  8.732870  0.558339  13.225574
Ar  5.412720  1.750058  14.200145
Ar  4.930590  5.764267  0.008833
Ar  7.416906  8.240843  15.398415
Ar  8.034450  5.764834  2.919908
Ar  6.393286  9.174539  1.909640
Ar  3.859670  7.348420  3.542555
Ar  7.476524  8.070542  5.859269
Ar  7.417193  6.617289  9.861332
Ar  5.836469  10.362022  7.983762
Ar  5.863996  5.687819  13.786258
Ar  9.217827  10.593390  10.448340
Ar  9.292005  4.173190  14.458457
Ar  6.187226  9.212462  11.934125
Ar  5.961668  11.632037  16.030484
Ar  6.804653  14.827202  14.635225
Ar  10.376183  11.503454  16.993483
Ar  8.379819  14.884754  0.512852
Ar  5.720058  11.522509  4.298616
Ar  7.414206  14.444174  4.306364
Ar  8.424949  12.628751  7.356139
Ar  5.640949  14.730785  8.032138
Ar  5.307317  12.887129  11.277988
Ar  8.412094  14.501685  11.157316
Ar  8.900072  11.707198  13.922460
Ar  2.900140  15.929245  14.903551
Ar  11.518358  0.123782  0.788215
Ar  12.002923  4.317432  0.116221
Ar  14.933650  1.654353  1.565058
Ar  10.989846  3.984413  3.719437
Ar  12.169893  0.900610  5.446500
Ar  14.531117  3.818821  5.310494
Ar  14.190261  1.203263  8.476534
Ar  10.197170  4.684554  7.116903
Ar  10.478306  1.082836  9.400677
Ar  14.893866  2.685608  11.909366
Ar  14.654060  0.156604  15.011498
Ar  11.774455  1.734653  14.416262
Ar  9.943240  7.107946  0.505138
Ar  13.021048  8.139873  15.927724
Ar  14.822890  5.824412  2.409508
Ar  12.953256  8.762874  2.250808
Ar  10.719859  7.644279  4.840654
Ar  14.584465  7.071282  5.710344
Ar  13.835174  5.063946  9.246584
Ar  11.530988  8.075911  8.508300
Ar  10.428184  5.193548  11.091747
Ar  14.172850  8.455942  11.861432
Ar  13.361866  5.105705  13.937803
Ar  10.916917  8.058706  13.207485
Ar  13.410656  11.558908  14.067354
Ar  15.132257  15.028553  0.655901
Ar  14.022659  12.456489  2.990969
Ar  10.978418  14.412908  3.665882
Ar  10.086161  10.730670  3.798858
Ar  14.548043  15.462733  4.871383
Ar  13.153387  11.727842  7.214140
Ar  11.606881  15.020076  7.684755
Ar  11.884046  13.067479  10.824079
Ar  12.352318  16.159040  12.153022
Ar  15.652028  14.383619  13.183973
Ar  12.287046  14.668331  15.819493
108
Frame 62 box=17.158430
Ar  0.857607  0.076529  0.456204
Ar  3.181894  2.788608  16.515312
Ar  2.341248  17.041824  3.543667
Ar  0.218819  3.349094  2.521946
Ar  16.445023  0.724433  4.516172
Ar  2.992695  3.492171  6.053105
Ar  4.283470  0.881345  8.083337
Ar  16.985372  5.476472  8.097731
Ar  15.147387  15.674561  9.783163
Ar  0.593930  1.849313  9.561259
Ar  0.669193  1.162167  13.343933
Ar  16.501003  3.425012  16.174581
Ar  16.398523  6.954301  14.935406
Ar  2.810580  7.764840  14.700668
Ar  1.326833  6.579192  1.371922
Ar  16.476830  9.371703  3.936301
Ar  0.766486  6.250649  4.797935
Ar  2.579845  9.597231  5.805827
Ar  3.575820  6.585664  7.555721
Ar  16.714678  9.098332  8.542976
Ar  16.785342  5.481569  11.666108
Ar  3.394304  9.317811  9.776408
Ar  2.856024  4.142941  13.452023
Ar  0.561787  9.681817  12.186012
Ar  16.496292  9.704907  0.374048
Ar  4.692469  13.719857  1.610570
Ar  2.917844  9.509984  0.982395
Ar  1.206621  12.877215  2.270167
Ar  16.825993  12.057624  6.068670
Ar  3.099162  14.094948  5.511663
Ar  1.908324  12.333161  9.177942
Ar  0.606167  15.865104  7.368321
Ar  15.363949  11.740696  10.332620
Ar  2.284549  15.813439  10.381853
Ar  2.086892  12.899865  12.777978
Ar  0.429140  12.471941  15.758121
Ar  5.331232  16.965681  0.833505
Ar  7.980853  2.313190  17.074104
Ar  8.894942  0.744760  3.390860
Ar  4.538502  2.960764  2.746263
Ar  5.661514  0.281015  4.934022
Ar  6.628448  3.676251  5.885003
Ar  8.037659  16.802514  7.400438
Ar  3.796866  4.072469  10.134259
Ar  5.287704  17.111332  11.645742
Ar  7.255180  2.957889  9.836223
Ar  8.737461  0.412645  12.832884
Ar  5.822020  1.870010  14.369652
Ar  5.167967  6.022145  16.850308
Ar  7.686450  8.695907  15.421952
Ar  8.071132  5.422539  2.693473
Ar  6.619005  9.181539  1.606902
Ar  4.226970  6.196138  3.374305
Ar  7.014707  7.897561  5.363066
Ar  7.417193  6.617289  9.861332
Ar  6.302838  10.660762  8.290615
Ar  5.981561  6.230426  13.405181
Ar  9.560529  10.418198  10.112261
Ar  9.462399  4.472421  14.849404
Ar  6.606996  9.364137  11.946758
Ar  5.298945  11.475073  15.553404
Ar  6.399270  14.681133  14.125218
Ar  10.383329  11.265134  0.082277
Ar  8.112228  14.810336  0.501605
Ar  5.211499  11.710676  4.718054
Ar  7.295838  14.584107  4.023665
Ar  8.365466  13.021682  7.113396
Ar  5.264637  14.673962  7.927404
Ar  5.020178  12.784805  10.996646
Ar  8.161043  14.549602  11.128948
Ar  9.002532  12.158243  13.600732
Ar  3.156956  15.966608  14.966628
Ar  11.346009  0.186107  1.007532
Ar  11.401595  3.760532  0.237208
Ar  14.541359  1.372152  1.257475
Ar  10.989846  3.984413  3.719437
Ar  11.857888  1.182221  5.601508
Ar  14.240001  3.760933  5.166892
Ar  13.758929  1.527794  8.377368
Ar  10.288791  4.950658  7.292557
Ar  10.631376  1.070358  9.533156
Ar  14.846768  2.223495  12.025805
Ar  14.743002  0.154067  14.929816
Ar  11.632819  1.755479  14.519662
Ar  9.850351  6.973692  0.219795
Ar  13.189238  7.819296  15.940996
Ar  14.395416  5.886786  1.496892
Ar  13.047376  8.901646  2.453148
Ar  10.615962  8.005484  4.632341
Ar  14.701698  7.029674  5.859325
Ar  13.790230  5.095099  9.006546
Ar  11.620489  8.059271  8.486455
Ar  10.444578  4.486101  11.078685
Ar  13.816882  9.089852  11.869793
Ar  13.357070  4.913338  13.432794
Ar  10.145639  7.502284  12.775154
Ar  13.560530  11.144589  14.653053
Ar  14.997657  15.078164  0.898717
Ar  13.937574  12.244505  3.304881
Ar  10.639549  14.657009  3.581868
Ar  9.574130  11.130377  3.814439
Ar  14.167241  15.326604  5.000392
Ar  12.892985  11.568523  6.636915
Ar  11.523681  14.823968  7.790232
Ar  12.262980  13.121646  11.311045
Ar  12.082857  16.531855  12.128356
Ar  15.731162  13.990001  13.052327
Ar  12.778060  14.160216  15.524063
108
Frame 63 box=17.158430
Ar  0.634300  16.707199  0.042957
Ar  2.705894  3.528792  16.843944
Ar  2.710573  16.913141  2.993224
Ar  0.218819  3.349094  2.521946
Ar  16.386061  0.744041  4.831538
Ar  2.722129  3.202582  5.556366
Ar  3.820307  1.065427  8.078012
Ar  0.143781  5.405037  7.667720
Ar  14.874858  16.035977  9.941033
Ar  0.162068  2.026633  8.825673
Ar  0.080323  0.209735  12.571719
Ar  16.121592  3.057410  16.425801
Ar  16.311925  6.627972  15.009947
Ar  2.585118  7.398081  15.397347
Ar  0.898632  6.742657  1.295669
Ar  16.395909  9.819629  3.835787
Ar  0.920759  6.271783  4.583773
Ar  2.579923  9.559180  5.605261
Ar  4.065033  6.746992  7.252705
Ar  0.333927  9.112524  8.074971
Ar  16.678921  6.342455  11.180804
Ar  2.845562  8.819368  10.633367
Ar  2.422739  4.661633  13.358175
Ar  0.516736  9.824878  12.762855
Ar  16.280605  9.312361  17.090236
Ar  4.365797  13.256162  1.093671
Ar  3.243746  9.934946  0.833901
Ar  1.425018  12.851692  3.036982
Ar  16.623351  12.513849  6.487740
Ar  3.125053  13.885277  5.634628
Ar  2.463776  12.242899  8.647888
Ar  0.845121  15.742659  7.448045
Ar  15.363949  11.740696  10.332620
Ar  2.521453  15.556652  10.727808
Ar  2.086892  12.899865  12.777978
Ar  0.299043  12.899691  16.243020
Ar  5.340475  16.537365  0.697671
Ar  8.364649  2.683624  0.098177
Ar  9.035006  0.804498  3.414351
Ar  4.975944  2.620366  2.080424
Ar  5.617376  0.524867  4.928734
Ar  6.961086  4.001954  6.187873
Ar  8.519693  0.044033  6.946168
Ar  3.796866  4.072469  10.134259
Ar  4.975159  0.462250  11.476105
Ar  7.366725  2.975207  9.927408
Ar  8.737461  0.412645  12.832884
Ar  6.008928  1.628499  14.971915
Ar  5.313537  5.692619  16.966480
Ar  7.491476  9.250517  15.620679
Ar  7.605727  5.431697  2.407766
Ar  6.945165  8.873340  1.919863
Ar  4.174955  6.298034  3.626082
Ar  7.828989  8.419213  6.105493
Ar  7.450155  6.344600  9.177743
Ar  6.083858  10.448156  8.821935
Ar  5.652000  6.224295  13.552183
Ar  9.548521  10.429133  9.848615
Ar  9.031914  4.531098  14.389872
Ar  5.907311  9.297375  12.032001
Ar  4.898840  11.548585  15.177619
Ar  6.259271  14.517087  14.287956
Ar  10.782377  11.398768  0.216211
Ar  8.185224  14.669394  0.229619
Ar  6.046902  11.069107  4.783498
Ar  7.252656  14.504545  4.236749
Ar  8.343157  13.213753  7.350011
Ar  5.119124  14.712758  8.193715
Ar  4.808680  12.922674  11.127894
Ar  8.714537  15.314055  10.384707
Ar  9.455645  12.288929  13.680931
Ar  3.039935  15.657633  14.734386
Ar  11.247178  0.386006  0.506477
Ar  11.946786  3.856352  0.278011
Ar  14.481735  0.977879  1.964217
Ar  10.989846  3.984413  3.719437
Ar  11.840611  0.433378  5.732890
Ar  14.742932  4.329805  4.925649
Ar  14.042213  1.889399  7.943100
Ar  10.552632  4.591779  7.164746
Ar  11.008786  1.079845  9.449867
Ar  14.567386  2.267542  11.501061
Ar  14.743002  0.154067  14.929816
Ar  11.985639  2.419022  14.031167
Ar  9.712773  6.637052  16.986753
Ar  13.023734  7.820294  15.915627
Ar  14.545290  5.781601  1.179545
Ar  13.180861  8.698396  2.208808
Ar  10.089337  7.646200  3.612055
Ar  14.282227  7.788617  6.058042
Ar  13.635927  5.409915  9.490969
Ar  11.555882  7.894455  8.226823
Ar  10.961617  4.084993  10.864803
Ar  13.688441  8.797476  12.190643
Ar  13.471069  5.241778  13.522778
Ar  10.060017  8.110767  13.356616
Ar  14.181504  11.540824  14.342339
Ar  15.198092  14.867298  1.201555
Ar  13.843635  11.954167  2.364647
Ar  10.701752  14.426707  3.235547
Ar  9.990804  11.221568  3.906131
Ar  13.864837  14.523260  5.125796
Ar  13.446697  11.391801  6.752637
Ar  11.330785  14.176105  7.451325
Ar  12.262980  13.121646  11.311045
Ar  12.209504  16.505405  12.265596
Ar  15.734990  14.303964  13.214058
Ar  12.286291  14.498113  15.176991
108
Frame 64 box=17.158430
Ar  0.506178  17.146289  17.088742
Ar  2.294456  3.550989  16.674581
Ar  2.406120  16.741574  3.178169
Ar  0.559437  2.987071  2.672445
Ar  16.639118  0.770349  5.133916
Ar  2.976809  3.210927  5.450637
Ar  3.820307  1.065427  8.078012
Ar  0.187155  5.046139  7.717537
Ar  14.865778  16.046541  9.814774
Ar  0.272063  1.952765  8.856867
Ar  0.440568  0.590733  12.565263
Ar  15.835042  3.295359  16.566252
Ar  16.194893  6.388429  15.286543
Ar  2.317574  7.234597  14.097490
Ar  1.439201  6.693239  1.274989
Ar  16.671119  9.269547  3.695327
Ar  0.920759  6.271783  4.583773
Ar  2.923382  9.927733  5.912624
Ar  4.077476  6.578812  6.900972
Ar  0.333927  9.112524  8.074971
Ar  0.683701  6.541662  11.058702
Ar  2.992632  8.913261  10.177400
Ar  1.592158  3.493100  13.060807
Ar  17.068055  10.101845  12.682777
Ar  16.325235  9.413406  16.866649
Ar  4.338333  13.185705  1.093918
Ar  2.614935  9.860099  1.626545
Ar  0.803189  12.563045  2.624946
Ar  16.689400  12.246748  6.064006
Ar  3.313031  13.538751  4.459146
Ar  2.545513  12.661311  8.558672
Ar  0.571868  15.698597  7.619556
Ar  15.932341  12.214971  9.951892
Ar  2.521453  15.556652  10.727808
Ar  2.640069  12.580047  12.751666
Ar  1.137996  12.351078  16.289278
Ar  5.340475  16.537365  0.697671
Ar  7.859150  2.666767  0.369010
Ar  9.068923  1.517139  3.806264
Ar  4.789986  2.823977  1.932512
Ar  5.617376  0.524867  4.928734
Ar  6.894546  3.743244  5.528653
Ar  8.549338  17.064959  6.859978
Ar  3.789921  4.318213  10.351440
Ar  4.807624  0.778903  11.318951
Ar  7.365556  2.644147  9.309651
Ar  8.342789  0.384799  12.969538
Ar  5.325555  1.593911  14.885341
Ar  5.109824  5.903528  17.051540
Ar  7.210004  8.765484  15.484566
Ar  7.569658  5.405990  2.675205
Ar  7.033072  9.002548  1.901667
Ar  4.174955  6.298034  3.626082
Ar  8.254704  8.663102  6.412771
Ar  7.643221  6.537169  9.097050
Ar  5.870928  10.222346  8.467830
Ar  5.474790  5.946998  13.521347
Ar  9.798715  10.453401  9.803174
Ar  8.517735  4.261745  14.657516
Ar  5.980662  9.766653  12.045967
Ar  4.898840  11.548585  15.177619
Ar  6.182612  14.831093  14.308940
Ar  11.085996  11.120485  0.041515
Ar  8.550317  14.618150  0.372703
Ar  6.027807  11.094572  4.674804
Ar  7.606567  14.893961  3.940919
Ar  8.053733  12.589312  7.729427
Ar  5.812863  15.145846  7.583805
Ar  5.268542  12.874409  10.643871
Ar  9.160689  14.969403  10.350250
Ar  9.114428  12.197113  13.249958
Ar  2.304308  15.415885  14.833229
Ar  10.810218  0.167869  16.986266
Ar  11.864074  3.831784  0.240058
Ar  13.957280  1.098190  1.977093
Ar  11.152362  4.086077  3.579340
Ar  11.834033  0.368554  5.304840
Ar  14.737147  3.759066  4.464507
Ar  14.232442  1.837677  7.597460
Ar  10.337315  3.995466  6.953626
Ar  11.008786  1.079845  9.449867
Ar  14.967393  2.610943  11.863183
Ar  14.714473  0.058509  14.816441
Ar  11.985639  2.419022  14.031167
Ar  9.776751  6.826148  0.227311
Ar  12.763705  7.911633  15.852792
Ar  15.012639  5.953130  1.626106
Ar  13.180861  8.698396  2.208808
Ar  10.089337  7.646200  3.612055
Ar  14.366364  6.987738  5.527629
Ar  14.113690  5.218910  9.300779
Ar  11.267781  7.564089  8.177399
Ar  9.718836  4.727383  11.470704
Ar  13.465533  9.484284  11.693005
Ar  13.455105  5.625221  13.090616
Ar  10.060017  8.110767  13.356616
Ar  14.622480  11.542446  15.032037
Ar  15.091658  15.081704  0.850187
Ar  13.384835  12.394069  2.390008
Ar  11.393493  15.180648  2.708510
Ar  9.612113  11.729319  4.354928
Ar  14.519634  15.228786  4.670085
Ar  13.390539  10.913015  6.637358
Ar  11.384386  13.928716  7.536229
Ar  12.687378  13.177913  11.343987
Ar  11.954987  16.624758  12.277994
Ar  16.510623  14.066650  12.886132
Ar  12.046607  13.947180  15.369754
108
Frame 65 box=17.158430
Ar  0.333010  0.227860  0.178703
Ar  2.970293  3.782911  16.236646
Ar  2.521866  16.763997  3.183308
Ar  0.833358  3.021476  2.538259
Ar  16.639118  0.770349  5.133916
Ar  2.831285  2.985620  5.168591
Ar  3.363973  1.254132  8.170015
Ar  0.464414  4.725713  7.108161
Ar  15.268656  15.239373  9.737553
Ar  0.272063  1.952765  8.856867
Ar  0.086435  0.278954  12.424804
Ar  15.835042  3.295359  16.566252
Ar  15.993640  6.510170  14.807756
Ar  2.116874  7.499798  14.145450
Ar  1.346485  6.280015  0.938901
Ar  16.194369  9.736793  3.740715
Ar  0.455553  6.612837  4.243481
Ar  3.271138  9.487475  6.067445
Ar  3.841170  6.245036  7.300309
Ar  16.774093  8.653447  7.692553
Ar  0.327369  6.131266  10.667691
Ar  2.249441  9.168406  10.395308
Ar  0.873125  3.914191  13.455119
Ar  16.840472  9.876526  13.192366
Ar  16.415755  9.253035  0.123546
Ar  3.763556  13.181355  0.670678
Ar  3.039170  9.530370  1.706555
Ar  0.475140  13.050249  2.770670
Ar  16.980306  12.494515  6.235486
Ar  3.949765  13.807483  4.888778
Ar  2.694482  12.114617  8.414707
Ar  1.322400  15.275828  7.680925
Ar  16.579312  11.700161  9.920903
Ar  2.521453  15.556652  10.727808
Ar  2.378083  12.392957  11.886424
Ar  0.507729  12.477583  15.752212
Ar  4.652175  16.863275  0.320399
Ar  8.518750  2.630699  0.407654
Ar  8.610584  1.597562  3.587127
Ar  4.719226  2.788006  2.164179
Ar  5.493605  0.240153  4.988929
Ar  6.331494  3.571037  5.791507
Ar  8.599012  16.598444  7.170909
Ar  3.423171  4.134535  10.628935
Ar  4.339059  1.100088  11.599584
Ar  6.960816  2.126899  9.306452
Ar  8.091817  0.759986  12.613560
Ar  5.534100  1.789833  14.928625
Ar  4.911842  6.948284  17.145421
Ar  7.543076  9.076911  15.497511
Ar  7.534176  4.839914  2.900994
Ar  6.681777  9.038541  1.924577
Ar  4.853534  6.611319  4.158228
Ar  7.751926  7.876573  6.289188
Ar  6.572294  6.762266  9.615464
Ar  5.870928  10.222346  8.467830
Ar  5.784462  5.878248  13.244091
Ar  10.220858  10.703114  9.889009
Ar  8.112522  4.261111  14.786366
Ar  6.740534  9.653545  12.160357
Ar  4.798380  11.100080  15.015480
Ar  6.503197  14.630558  14.309884
Ar  10.997918  10.308253  16.580535
Ar  8.478656  14.052526  17.135481
Ar  6.260001  11.024854  4.921060
Ar  7.896322  14.495090  3.825276
Ar  7.746798  12.909054  7.733000
Ar  5.577187  15.830239  7.901291
Ar  5.346631  13.227537  10.711421
Ar  8.469830  15.119205  10.575054
Ar  9.445131  12.752111  13.867183
Ar  2.211085  15.829082  14.584269
Ar  11.357371  0.538547  16.748015
Ar  12.345816  3.945187  0.154819
Ar  13.718359  1.267204  2.150991
Ar  11.900016  4.407208  3.412173
Ar  11.773201  0.015739  5.638455
Ar  15.107456  3.903879  4.564339
Ar  13.899167  1.912149  7.750106
Ar  10.002132  4.087605  7.298113
Ar  10.586758  1.122304  9.799565
Ar  14.249145  2.252017  11.235955
Ar  14.884127  0.069719  14.948451
Ar  11.460871  2.775127  13.916611
Ar  9.975512  6.456137  0.223507
Ar  12.736437  7.516435  15.677256
Ar  15.012639  5.953130  1.626106
Ar  13.178115  8.843099  2.001374
Ar  10.277962  7.691089  3.458908
Ar  13.814989  7.307779  5.381552
Ar  13.951048  5.299383  9.475345
Ar  11.154623  7.202016  8.682540
Ar  9.402971  4.393086  11.431878
Ar  13.918412  9.267630  11.557496
Ar  13.539940  5.723271  12.927591
Ar  10.424559  7.963233  13.112019
Ar  14.023573  11.274601  14.971051
Ar  14.771068  15.033843  0.699320
Ar  13.508050  12.216317  2.524325
Ar  11.417319  15.447490  2.646465
Ar  9.836152  11.472464  4.509022
Ar  14.391675  15.020316  4.975371
Ar  13.562471  11.272269  6.691380
Ar  11.794083  14.259953  8.335596
Ar  12.452544  13.038149  11.810680
Ar  12.057263  16.436979  12.626644
Ar  15.973863  14.078071  13.009322
Ar  11.743703  14.294283  15.458867
108
Frame 66 box=17.158430
Ar  0.436193  0.202679  0.223819
Ar  2.970293  3.782911  16.236646
Ar  2.247423  16.891427  3.294044
Ar  0.327427  3.273500  2.359874
Ar  16.344516  0.583195  5.688477
Ar  2.831285  2.985620  5.168591
Ar  3.363973  1.254132  8.170015
Ar  0.349704  5.170675  6.889766
Ar  15.319415  16.202144  9.068236
Ar  0.216267  2.193155  8.900999
Ar  16.825735  0.405079  12.575914
Ar  15.835042  3.295359  16.566252
Ar  15.993640  6.510170  14.807756
Ar  2.354911  7.662330  14.038200
Ar  1.457876  6.648865  0.188662
Ar  16.541597  9.236838  3.801049
Ar  1.495241  6.466626  3.792376
Ar  2.657403  9.584933  5.850473
Ar  3.490300  6.680063  7.417946
Ar  16.658501  8.705875  7.537056
Ar  0.156131  5.814196  11.086755
Ar  2.007921  8.798941  10.446429
Ar  0.708967  3.476858  13.738327
Ar  16.696052  10.279029  13.481884
Ar  16.675862  9.506615  16.938442
Ar  3.982323  13.417622  0.949108
Ar  3.284750  9.339590  2.068179
Ar  0.303959  13.243905  2.391761
Ar  0.312711  12.097817  6.538491
Ar  3.320253  13.357287  4.638236
Ar  3.354306  12.032592  8.694313
Ar  1.629784  15.243356  7.388078
Ar  16.579312  11.700161  9.920903
Ar  2.040360  15.545925  11.435796
Ar  2.981409  11.887671  12.544565
Ar  0.283873  12.925737  16.118515
Ar  5.457389  16.406941  0.642799
Ar  8.114204  2.611366  0.441290
Ar  8.605745  0.709142  3.669637
Ar  5.251474  2.570501  2.456364
Ar  5.550514  16.972192  4.933559
Ar  6.856900  3.012601  5.759142
Ar  9.442417  16.404402  6.905415
Ar  3.679387  4.216515  10.794463
Ar  4.671288  1.050466  11.509031
Ar  6.756931  2.826087  9.553063
Ar  7.838126  0.414619  12.566219
Ar  5.457204  1.409481  14.972278
Ar  5.066701  6.756517  0.308104
Ar  7.720620  8.617782  15.460966
Ar  7.885704  5.293515  2.671428
Ar  7.038912  9.554993  1.770417
Ar  5.194253  6.909933  3.917645
Ar  7.544581  7.674428  6.262569
Ar  7.615914  6.590846  9.970417
Ar  5.970674  9.599973  8.585983
Ar  5.667475  5.994315  13.023834
Ar  9.587473  11.199750  10.380318
Ar  8.532843  4.416312  14.696496
Ar  6.124214  9.572278  12.178164
Ar  4.540676  10.239231  15.828315
Ar  6.111737  14.983190  14.267956
Ar  10.090534  10.246744  0.266139
Ar  8.132722  13.645807  16.955035
Ar  6.137918  11.188909  5.240419
Ar  7.720276  14.430715  3.562695
Ar  8.197346  13.004376  7.269980
Ar  5.588900  15.647397  8.309601
Ar  5.928553  13.502521  10.877521
Ar  9.103904  14.804025  10.795536
Ar  8.872289  11.563018  13.723384
Ar  2.788893  15.232567  14.954838
Ar  11.074553  0.615128  16.713318
Ar  12.409820  4.078441  17.105521
Ar  14.147974  1.141112  1.961989
Ar  11.313996  3.916376  3.429794
Ar  12.121340  0.713061  5.027093
Ar  14.782379  3.416908  4.365073
Ar  13.794605  2.306799  7.456790
Ar  9.885041  4.035568  7.421898
Ar  10.425541  1.417490  9.701895
Ar  14.339789  2.178891  11.037070
Ar  14.439932  0.275174  15.078181
Ar  11.513326  2.973544  13.690215
Ar  9.975512  6.456137  0.223507
Ar  12.587267  8.108921  15.385155
Ar  15.140475  5.894975  1.567486
Ar  13.556010  8.896536  1.591333
Ar  10.179362  7.649156  4.024775
Ar  13.740359  7.020805  5.543972
Ar  14.595010  6.023976  8.963896
Ar  11.578244  7.649607  8.911903
Ar  10.017933  4.745865  11.336551
Ar  14.245110  9.287692  11.226899
Ar  13.507280  5.703098  12.275136
Ar  10.767720  8.410219  12.175929
Ar  13.815236  11.945081  15.387605
Ar  14.454678  15.080624  0.447310
Ar  13.526482  11.982555  2.966473
Ar  11.282182  15.112336  2.728303
Ar  10.366776  11.292619  4.533659
Ar  14.386924  14.850654  5.460241
Ar  13.388483  10.834167  7.069775
Ar  12.003452  14.224815  8.344701
Ar  13.141120  12.708174  11.671755
Ar  11.804553  16.432145  12.844144
Ar  16.279861  14.107207  12.751032
Ar  11.113384  14.243376  15.352250
108
Frame 67 box=17.158430
Ar  0.738349  16.578970  16.865806
Ar  2.831119  3.225949  16.554392
Ar  1.804741  0.045988  3.071103
Ar  0.321223  2.872779  2.363318
Ar  16.344516  0.583195  5.688477
Ar  2.713043  3.414468  5.255125
Ar  3.637930  1.875381  8.388513
Ar  0.608236  5.214323  7.512007
Ar  15.282914  15.874122  8.459246
Ar  0.357323  2.053827  8.900743
Ar  16.837605  0.499255  12.441730
Ar  15.787099  3.121915  16.468655
Ar  15.993640  6.510170  14.807756
Ar  2.496897  7.323506  14.043373
Ar  1.457876  6.648865  0.188662
Ar  16.368813  9.009863  3.607658
Ar  1.770323  6.309370  3.846771
Ar  2.919309  8.998250  5.565882
Ar  4.673193  5.757776  7.643135
Ar  17.120562  8.494269  7.088824
Ar  0.005064  6.849361  10.768531
Ar  3.024713  8.531732  10.827384
Ar  0.708967  3.476858  13.738327
Ar  16.218009  10.180968  13.505128
Ar  16.198667  9.322357  17.001155
Ar  3.875989  13.295647  1.276045
Ar  3.078267  9.736862  1.817872
Ar  0.208623  14.016399  3.065684
Ar  0.038219  11.717967  5.917640
Ar  3.433569  13.094763  4.737119
Ar  3.030296  12.085358  8.960471
Ar  1.747997  15.601326  7.372902
Ar  16.649386  12.091770  10.005267
Ar  2.062700  15.497743  11.115794
Ar  2.719804  12.107041  12.654250
Ar  0.667256  12.665522  15.979855
Ar  5.249937  16.854872  1.043228
Ar  7.925341  2.536031  0.225332
Ar  8.630895  0.488024  2.843919
Ar  5.277437  3.284735  2.657533
Ar  5.146720  16.796904  4.878364
Ar  6.620520  2.511395  6.230066
Ar  9.181961  16.640773  6.911890
Ar  3.493293  4.518427  11.041872
Ar  4.279287  1.249396  11.780030
Ar  6.924355  3.266658  9.760290
Ar  8.030195  0.560044  12.314195
Ar  5.607174  1.661474  14.774096
Ar  5.292332  6.236822  16.816753
Ar  7.720620  8.617782  15.460966
Ar  8.340357  4.671038  3.079889
Ar  6.902353  9.253681  1.375022
Ar  5.471100  7.003112  3.810035
Ar  8.221658  6.693403  6.149811
Ar  7.596996  6.619696  9.814776
Ar  6.436147  9.894734  8.530779
Ar  6.326033  6.252542  13.071200
Ar  9.887145  11.558261  9.596500
Ar  8.532843  4.416312  14.696496
Ar  6.124214  9.572278  12.178164
Ar  3.485048  10.450581  15.395007
Ar  6.346416  15.053120  14.128294
Ar  10.220936  10.523903  17.033660
Ar  8.124662  14.384142  0.122509
Ar  6.915219  10.490531  4.982895
Ar  6.803443  14.119574  3.578154
Ar  7.941958  13.136049  7.120088
Ar  5.432106  15.528670  8.484894
Ar  5.990944  13.103947  11.572672
Ar  9.310860  15.025000  10.353552
Ar  8.438296  11.799266  14.158124
Ar  3.096182  15.218075  14.835948
Ar  11.222964  0.527285  16.976752
Ar  12.409820  4.078441  17.105521
Ar  14.347067  0.972458  2.012570
Ar  12.120907  4.526143  3.575470
Ar  11.986449  0.733248  4.789888
Ar  15.661480  4.031251  4.971601
Ar  13.794605  2.306799  7.456790
Ar  10.033606  3.951548  6.308495
Ar  10.441455  1.866518  10.058275
Ar  13.974020  2.213465  10.817180
Ar  14.439932  0.275174  15.078181
Ar  11.786224  2.705785  13.667381
Ar  10.319991  6.734143  0.151153
Ar  12.943495  8.204680  15.173000
Ar  15.140475  5.894975  1.567486
Ar  13.152533  9.133814  1.646704
Ar  10.266781  7.590393  3.644459
Ar  13.472646  7.281580  5.605413
Ar  14.724515  5.496640  8.816512
Ar  11.283585  7.159648  8.168226
Ar  10.265869  5.178346  11.103357
Ar  13.868019  8.957575  10.629944
Ar  13.507280  5.703098  12.275136
Ar  10.542547  8.599950  12.121689
Ar  13.968904  12.139933  15.063739
Ar  14.850923  14.798922  0.033130
Ar  13.591563  12.525478  2.062278
Ar  11.098224  15.397335  2.800166
Ar  10.607173  11.549455  4.957040
Ar  14.764916  14.246699  5.178786
Ar  13.272809  10.951460  7.391901
Ar  11.632611  14.116560  7.347037
Ar  13.281629  12.422227  11.693518
Ar  11.919120  16.663623  12.484731
Ar  16.288162  14.191072  13.037163
Ar  10.964374  14.532149  15.316651
108
Frame 68 box=17.158430
Ar  0.653831  16.347555  17.020071
Ar  2.853099  3.531173  0.092601
Ar  2.450666  0.055027  2.853253
Ar  0.027663  2.906125  2.206282
Ar  16.967058  0.301015  4.985445
Ar  2.414286  3.014970  5.444357
Ar  4.126524  1.472521  8.514847
Ar  0.608236  5.214323  7.512007
Ar  15.600105  15.282620  8.822196
Ar  0.169068  1.843908  8.753746
Ar  17.076900  0.635097  11.851831
Ar  15.802393  3.243878  16.358441
Ar  15.804692  6.341618  15.007147
Ar  3.259026  7.458258  13.793041
Ar  1.695686  6.681473  0.100420
Ar  16.011836  9.703585  3.895537
Ar  1.629776  6.778017  4.039744
Ar  2.937332  9.444188  5.682156
Ar  4.037103  5.645156  7.373722
Ar  16.788154  8.305820  7.119625
Ar  0.037371  6.204695  11.115186
Ar  3.696501  8.329517  10.656189
Ar  1.430046  3.077045  14.183011
Ar  16.479264  9.526171  13.526578
Ar  16.842595  9.514162  0.132229
Ar  3.826365  13.899286  0.479389
Ar  3.509067  9.602109  1.659799
Ar  0.305335  14.346831  3.465676
Ar  17.084778  12.153444  6.312556
Ar  3.405546  13.046963  4.333797
Ar  3.224563  12.171176  7.926922
Ar  1.685638  15.722393  7.174675
Ar  16.571647  11.919057  9.795685
Ar  1.996714  15.125060  11.127607
Ar  2.089993  11.717705  12.236918
Ar  0.646014  12.767165  16.615559
Ar  5.395493  16.860494  1.369869
Ar  7.589515  2.891366  0.059659
Ar  8.411924  0.853577  2.994568
Ar  5.253091  3.003304  2.778510
Ar  5.641338  16.381760  4.910878
Ar  7.108927  2.401874  6.524261
Ar  9.278591  16.434015  6.607595
Ar  3.522271  4.382378  11.143033
Ar  4.179212  0.317211  11.969838
Ar  6.852839  2.458252  10.151015
Ar  8.626403  1.235898  12.614490
Ar  5.226724  1.704615  15.262192
Ar  5.292332  6.236822  16.816753
Ar  7.522119  8.378357  15.438636
Ar  8.530840  4.424711  3.009539
Ar  7.105874  9.007379  1.644184
Ar  5.015184  6.517788  3.423166
Ar  8.617596  7.048907  6.540924
Ar  7.602129  6.957126  9.937852
Ar  6.476257  9.884793  8.474421
Ar  6.252318  5.828699  13.037201
Ar  10.736699  11.161163  9.726205
Ar  9.461821  4.735891  14.869394
Ar  6.910777  9.248694  12.176529
Ar  4.188175  11.137465  15.286745
Ar  6.617787  15.628788  13.877985
Ar  10.229413  10.597128  0.063556
Ar  8.650829  14.331839  17.144125
Ar  6.266757  11.113376  4.535233
Ar  7.245518  14.027680  3.259259
Ar  8.322905  12.800933  7.111844
Ar  5.703668  15.162957  8.741086
Ar  5.990944  13.103947  11.572672
Ar  9.163912  14.536398  10.215331
Ar  8.436244  11.548964  14.190069
Ar  2.712840  15.229008  14.714322
Ar  10.467481  1.054901  16.653729
Ar  12.409820  4.078441  17.105521
Ar  14.347067  0.972458  2.012570
Ar  12.120907  4.526143  3.575470
Ar  11.409262  1.402614  4.447675
Ar  15.516723  3.974613  4.936467
Ar  13.682965  1.726091  7.119957
Ar  10.184279  3.987606  6.568407
Ar  10.437992  1.380294  9.664497
Ar  14.150309  2.058526  10.743750
Ar  14.554940  0.392241  14.260701
Ar  11.874245  2.816180  13.452863
Ar  10.298757  7.213732  17.090560
Ar  12.999661  8.398418  15.022853
Ar  15.140475  5.894975  1.567486
Ar  13.059436  9.052636  1.646070
Ar  10.039164  8.000830  3.188766
Ar  13.091777  6.806601  5.742237
Ar  14.711224  5.582237  9.028490
Ar  11.440706  7.722805  8.844501
Ar  10.103330  4.702294  10.891369
Ar  14.317289  8.868459  10.773865
Ar  13.682246  5.721338  12.250359
Ar  10.648681  8.401227  12.008888
Ar  13.485419  12.028270  15.356482
Ar  14.526533  15.138433  0.109690
Ar  13.815551  12.313669  2.595555
Ar  11.682114  15.407902  2.440465
Ar  10.621702  12.261271  4.153833
Ar  14.364501  14.915811  5.394981
Ar  13.981407  10.645104  6.946882
Ar  11.992042  14.155097  7.634965
Ar  13.418396  12.813698  11.503626
Ar  12.389790  16.205583  11.769744
Ar  15.836575  14.393152  13.708996
Ar  11.443059  14.905236  15.026815
108
Frame 69 box=17.158430
Ar  0.434759  16.586032  17.125080
Ar  2.717399  2.831819  16.878270
Ar  2.667472  17.049913  2.845884
Ar  0.598874  3.129248  2.531723
Ar  16.987886  0.570286  5.206972
Ar  2.479360  3.493062  5.186693
Ar  3.659444  1.310433  8.240008
Ar  0.608236  5.214323  7.512007
Ar  15.206874  15.303055  8.536817
Ar  16.981682  1.977284  8.353738
Ar  17.022840  0.522615  12.078486
Ar  16.386741  2.772835  16.471317
Ar  15.788889  6.280778  15.298484
Ar  3.002771  6.487489  14.094366
Ar  1.581308  6.655457  0.185383
Ar  15.925801  8.891041  3.774385
Ar  1.763745  6.802469  3.876097
Ar  3.360591  9.253482  5.994303
Ar  4.562792  6.033970  7.385611
Ar  16.788154  8.305820  7.119625
Ar  0.006282  5.781552  10.908236
Ar  2.459121  8.590841  9.577880
Ar  1.039743  3.376895  13.700769
Ar  16.885067  9.687844  13.882722
Ar  16.222963  9.448456  0.419905
Ar  4.034468  13.884545  0.706591
Ar  3.679321  9.515085  2.131583
Ar  0.305335  14.346831  3.465676
Ar  0.292394  11.832001  6.178285
Ar  3.362373  12.913928  4.811037
Ar  3.438649  12.529600  8.770632
Ar  1.590507  14.924153  6.971351
Ar  16.732355  12.047959  10.029786
Ar  2.202568  14.718664  11.347263
Ar  2.580133  11.058021  11.980649
Ar  0.313035  12.683159  16.314655
Ar  5.724123  17.008957  1.294737
Ar  7.589515  2.891366  0.059659
Ar  8.411924  0.853577  2.994568
Ar  5.107922  2.882273  2.671220
Ar  5.538608  16.146109  5.128589
Ar  6.162937  2.704493  6.134391
Ar  9.007728  17.044295  6.934813
Ar  3.594591  4.172906  11.327023
Ar  3.544688  0.952610  12.235121
Ar  7.167329  2.516028  9.798163
Ar  8.708894  1.161628  13.038600
Ar  5.226724  1.704615  15.262192
Ar  5.191085  5.739632  0.239246
Ar  7.645472  8.276111  15.435374
Ar  8.530840  4.424711  3.009539
Ar  7.448280  8.956178  1.766358
Ar  5.327770  6.179266  3.690452
Ar  7.901443  7.031876  6.253257
Ar  7.854617  6.938387  9.874941
Ar  6.284999  10.068063  8.396039
Ar  6.252318  5.828699  13.037201
Ar  10.161298  11.136991  9.335160
Ar  9.258017  4.801626  14.855873
Ar  6.504641  9.632851  12.047722
Ar  3.854670  10.767164  15.362198
Ar  6.348437  15.764593  13.841219
Ar  10.399409  11.277489  0.139556
Ar  8.564487  14.581385  16.539702
Ar  6.341834  10.757736  4.460813
Ar  7.575259  14.000159  2.815688
Ar  8.004498  13.210191  7.375248
Ar  5.847822  15.927428  8.790224
Ar  6.021765  12.961153  11.387486
Ar  9.112661  15.067652  10.223227
Ar  8.431966  12.243549  14.185104
Ar  2.694906  15.324346  14.734827
Ar  10.606781  0.912578  16.935979
Ar  12.859349  3.824821  16.936533
Ar  14.092134  1.065566  1.995110
Ar  11.985278  4.639758  3.031792
Ar  11.435601  1.395653  4.453286
Ar  15.285813  3.989449  4.734421
Ar  13.759988  1.394462  6.972754
Ar  10.085396  4.148640  6.325851
Ar  10.437992  1.380294  9.664497
Ar  14.263552  2.481639  10.596245
Ar  13.785531  0.609038  15.119585
Ar  11.874245  2.816180  13.452863
Ar  10.404207  6.922665  0.042828
Ar  12.945882  8.542287  15.193791
Ar  15.343475  6.306460  1.675818
Ar  13.003572  9.052585  1.298588
Ar  10.423858  8.091044  3.659958
Ar  13.308506  7.305805  5.404539
Ar  14.319497  5.944839  8.599334
Ar  11.127002  7.894763  8.825619
Ar  9.959189  4.805426  11.348443
Ar  14.735416  8.876786  10.369652
Ar  13.293467  5.867654  12.383109
Ar  10.041713  8.518726  12.360219
Ar  13.975321  11.991744  16.248126
Ar  14.526533  15.138433  0.109690
Ar  13.882997  12.651290  2.609622
Ar  11.246875  15.499981  2.744269
Ar  10.620612  11.842191  5.148829
Ar  14.345044  15.529022  4.973812
Ar  14.053601  11.004170  7.227927
Ar  11.761775  13.978977  7.828905
Ar  13.126277  12.658235  11.813855
Ar  12.737651  16.674823  11.760110
Ar  15.907513  14.163049  13.185468
Ar  11.465821  15.009943  14.517912
108
Frame 70 box=17.158430
Ar  0.867441  16.952405  0.091326
Ar  2.821815  3.085352  17.128041
Ar  3.030985  16.650469  2.807216
Ar  0.598874  3.129248  2.531723
Ar  0.152556  0.506841  5.136187
Ar  2.623209  3.372201  5.374838
Ar  3.504534  1.360844  8.202605
Ar  0.473905  4.833903  7.815577
Ar  15.064495  15.314334  9.007687
Ar  16.978221  1.613666  8.388187
Ar  16.874168  0.303447  11.604447
Ar  16.311835  3.046663  16.829824
Ar  15.771990  5.938373  15.200740
Ar  3.269534  6.182700  14.573447
Ar  1.581308  6.655457  0.185383
Ar  15.654658  9.290143  3.564046
Ar  0.665161  6.509311  4.129042
Ar  3.167199  9.258810  5.826404
Ar  3.955232  6.556951  7.585795
Ar  16.788154  8.305820  7.119625
Ar  17.124754  5.813717  11.502464
Ar  1.844185  8.831283  10.021074
Ar  0.880520  3.261276  13.876370
Ar  16.594141  10.233713  13.605144
Ar  16.396117  9.398768  0.326201
Ar  4.439398  13.285304  0.919672
Ar  3.116763  10.132489  2.570460
Ar  0.305335  14.346831  3.465676
Ar  17.118943  11.537404  5.864266
Ar  3.780213  13.030597  4.793814
Ar  3.141283  11.995472  8.103336
Ar  1.120822  14.795495  7.238181
Ar  16.921428  12.126906  9.942511
Ar  2.698248  14.876251  10.852583
Ar  2.695646  11.565914  12.854310
Ar  0.127446  13.101043  17.021441
Ar  5.843269  16.705674  0.965710
Ar  7.719231  2.467429  0.283886
Ar  8.096168  0.748104  3.715100
Ar  5.107922  2.882273  2.671220
Ar  5.538608  16.146109  5.128589
Ar  6.679262  3.107924  6.621604
Ar  8.632890  17.125990  7.022464
Ar  3.811293  4.129832  10.277494
Ar  3.826353  0.739532  12.046333
Ar  7.216490  2.266121  10.202867
Ar  8.137926  1.738023  13.649809
Ar  5.167489  1.647255  15.295397
Ar  5.591345  5.615271  0.361952
Ar  7.697926  8.249478  15.305889
Ar  8.407781  4.768689  3.071352
Ar  6.893015  8.867024  1.539173
Ar  5.071637  6.051854  4.071564
Ar  7.673377  6.821750  6.372195
Ar  7.202692  6.298758  9.654249
Ar  6.514111  10.132724  8.042172
Ar  6.622534  5.876871  12.947913
Ar  10.186282  11.781380  9.557303
Ar  9.258017  4.801626  14.855873
Ar  5.191930  9.196514  11.951094
Ar  2.309313  10.290155  15.916471
Ar  6.562940  15.858209  14.172041
Ar  10.675138  11.236235  16.980615
Ar  8.564487  14.581385  16.539702
Ar  6.091398  10.547367  4.678903
Ar  7.326394  13.812785  2.841641
Ar  7.597227  13.473251  6.764295
Ar  6.023220  15.773802  8.773464
Ar  5.915326  13.191207  11.177043
Ar  9.305666  15.427396  10.813589
Ar  9.239143  12.231293  13.872446
Ar  2.654678  15.328439  14.937832
Ar  10.745674  0.576084  16.974070
Ar  12.927715  4.232625  16.544724
Ar  14.156084  1.181540  2.368346
Ar  11.985278  4.639758  3.031792
Ar  11.355996  1.776073  4.619726
Ar  15.565619  4.131421  5.027202
Ar  13.759988  1.394462  6.972754
Ar  9.998252  3.943088  6.521491
Ar  10.641624  1.388368  9.604165
Ar  13.902743  2.573134  10.266754
Ar  14.206795  0.338697  14.875847
Ar  11.874245  2.816180  13.452863
Ar  10.360721  6.894358  0.244544
Ar  13.037434  8.087279  15.429994
Ar  15.177989  6.020514  1.672473
Ar  13.074223  9.469191  1.728025
Ar  10.314247  7.841078  3.907715
Ar  13.505268  7.271935  5.497706
Ar  14.319497  5.944839  8.599334
Ar  10.973978  7.606780  8.457706
Ar  9.889134  4.891866  11.506370
Ar  15.419163  8.903672  10.382803
Ar  13.591295  5.920700  12.409786
Ar  10.493038  8.361235  12.449699
Ar  13.818465  12.145673  15.918618
Ar  14.768687  15.184766  0.912156
Ar  13.661995  12.446631  3.036356
Ar  11.204236  15.171873  2.039849
Ar  10.145052  11.934140  4.662909
Ar  14.489998  15.615593  4.892687
Ar  13.943077  11.165132  7.440541
Ar  11.676881  14.310782  7.562165
Ar  13.038191  12.466384  11.837520
Ar  12.755108  16.042242  11.948427
Ar  15.775976  14.211879  13.586895
Ar  11.851952  14.743406  15.217158
108
Frame 71 box=17.158430
Ar  0.729527  16.645844  17.108217
Ar  2.527258  3.246480  16.945812
Ar  3.156082  16.824322  3.215624
Ar  0.622275  2.964836  2.646491
Ar  17.138856  0.631086  5.116129
Ar  2.843993  3.308366  5.300799
Ar  3.901355  1.103414  8.043824
Ar  0.407551  4.982329  8.069411
Ar  14.598116  15.119180  9.122761
Ar  17.054136  1.705512  8.522287
Ar  0.050360  17.002307  11.787756
Ar  16.343194  2.606419  16.528374
Ar  15.825390  6.480393  15.065785
Ar  2.393389  6.327957  13.600870
Ar  1.700945  6.666928  0.298963
Ar  15.859000  9.708985  3.526535
Ar  1.209554  6.621103  4.009187
Ar  3.240754  9.172822  5.571839
Ar  4.154231  6.481507  7.834876
Ar  16.742279  8.285678  7.082483
Ar  16.876592  5.474532  11.322313
Ar  2.200650  8.910047  9.876407
Ar  0.921580  3.016142  13.401853
Ar  16.594141  10.233713  13.605144
Ar  15.984160  9.356656  17.157073
Ar  4.288198  13.006599  0.849149
Ar  2.923503  9.243763  2.038437
Ar  0.382770  14.193252  3.102927
Ar  0.659648  11.901971  6.125273
Ar  3.829321  13.050585  4.266834
Ar  4.095952  12.816240  7.885950
Ar  1.400288  15.147246  7.082725
Ar  16.452549  12.102536  9.672768
Ar  2.622618  14.755218  10.524503
Ar  2.286637  11.558578  12.413552
Ar  0.032073  12.613723  16.475138
Ar  5.881363  16.674018  0.667638
Ar  7.821259  2.844942  0.332567
Ar  8.429482  0.252457  3.634658
Ar  5.075826  2.754629  2.685744
Ar  5.471404  15.846232  5.443571
Ar  6.305235  3.192196  6.177800
Ar  8.509729  0.541983  7.091183
Ar  3.399156  3.869558  10.104624
Ar  3.627889  0.674479  11.656413
Ar  6.977363  2.280238  9.648511
Ar  8.322324  2.058826  13.059484
Ar  5.139646  1.731892  15.055347
Ar  5.591345  5.615271  0.361952
Ar  7.444238  8.264468  15.087515
Ar  8.392098  4.479835  3.534337
Ar  6.983584  8.569423  1.479134
Ar  4.835747  5.881170  4.186080
Ar  7.193103  7.247903  6.362091
Ar  7.668085  6.781969  9.838130
Ar  6.768669  10.072410  8.412706
Ar  5.536502  5.105551  13.046150
Ar  10.093546  11.844881  9.502525
Ar  9.277895  4.792418  14.986917
Ar  4.956429  9.478891  11.883537
Ar  3.577561  9.776663  15.487062
Ar  6.690336  15.965505  13.745835
Ar  9.708362  10.490605  0.422905
Ar  8.470652  14.118661  16.318275
Ar  6.425582  10.425167  5.125919
Ar  7.504584  13.584977  3.232457
Ar  7.830297  13.488357  6.873614
Ar  6.332380  15.862362  9.211708
Ar  6.434375  13.075093  11.203745
Ar  9.295368  14.706554  11.455143
Ar  9.684366  11.692658  13.860940
Ar  3.008493  14.861695  14.527671
Ar  10.863163  0.929744  0.124403
Ar  12.927715  4.232625  16.544724
Ar  14.834076  1.186859  2.450935
Ar  11.866384  4.354052  2.493920
Ar  11.849872  1.333235  4.302063
Ar  15.334769  3.899530  4.807784
Ar  13.536240  1.672872  6.995184
Ar  10.405802  4.201168  6.714291
Ar  10.576150  1.390195  9.567975
Ar  14.390616  1.889385  10.668757
Ar  14.292074  0.584884  14.856777
Ar  11.711055  2.627316  13.183337
Ar  10.240165  7.085707  0.632545
Ar  12.626550  8.812180  15.301806
Ar  15.332964  6.432037  1.481767
Ar  12.579586  9.313797  2.067386
Ar  9.390481  8.453387  3.966317
Ar  13.352493  7.322540  4.778889
Ar  14.319497  5.944839  8.599334
Ar  11.118090  7.815808  7.731470
Ar  10.153287  4.829443  11.169852
Ar  15.419163  8.903672  10.382803
Ar  13.248428  6.010789  12.164838
Ar  10.478662  8.300592  12.179383
Ar  13.402298  11.856399  15.991075
Ar  14.070242  15.282641  0.477038
Ar  13.661995  12.446631  3.036356
Ar  10.953026  15.226764  2.238789
Ar  10.346197  12.171166  4.952819
Ar  14.407902  15.654439  4.517479
Ar  14.059162  12.046705  6.593517
Ar  11.269467  14.352668  7.556159
Ar  12.998397  12.546527  11.881923
Ar  12.639473  16.312393  11.795957
Ar  16.298704  14.108929  13.338351
Ar  11.504460  15.107871  14.823549
108
Frame 72 box=17.158430
Ar  0.171154  15.864048  16.475472
Ar  2.776024  3.420674  0.134633
Ar  2.726290  16.687135  3.146564
Ar  0.399284  2.774963  2.759407
Ar  16.902615  0.350031  5.082132
Ar  2.805861  3.197449  5.398296
Ar  3.458058  1.112011  8.073544
Ar  0.517241  4.782062  7.701266
Ar  15.405998  15.657424  9.410743
Ar  0.189180  1.723579  8.838942
Ar  0.088119  17.157152  12.241836
Ar  16.343194  2.606419  16.528374
Ar  15.747253  6.083988  15.294701
Ar  3.048073  6.835356  13.339695
Ar  1.491731  6.736171  0.141036
Ar  16.120773  9.636452  3.793282
Ar  0.865243  6.526726  4.173901
Ar  3.144670  9.180670  5.772422
Ar  4.267761  6.259352  7.712311
Ar  16.489590  8.494694  7.312929
Ar  16.943671  5.945404  11.297675
Ar  2.236575  8.645508  9.957041
Ar  0.848930  3.296291  13.243745
Ar  15.821907  10.118087  13.523250
Ar  15.984160  9.356656  17.157073
Ar  4.104685  13.778143  0.759151
Ar  2.937357  9.711537  1.848733
Ar  16.954982  13.519378  3.030822
Ar  0.337444  11.793364  6.422217
Ar  3.222038  13.207259  4.219922
Ar  3.891850  12.327060  8.120784
Ar  1.613645  15.418522  6.876346
Ar  16.452549  12.102536  9.672768
Ar  1.879707  14.833175  10.330486
Ar  1.998581  11.575799  12.256492
Ar  0.489488  12.197621  16.608858
Ar  5.847690  16.405094  0.640710
Ar  8.475709  2.555860  0.490744
Ar  8.226547  0.045838  3.331613
Ar  5.117729  2.477150  2.831850
Ar  5.471404  15.846232  5.443571
Ar  6.365456  3.696428  6.617039
Ar  8.503210  0.352299  7.242962
Ar  2.910309  4.401161  10.604137
Ar  3.856278  0.942862  11.722838
Ar  7.305698  2.746199  10.009631
Ar  8.715860  1.424013  12.776978
Ar  5.153967  1.794957  15.313033
Ar  5.802052  5.519220  0.024973
Ar  7.108094  7.730203  14.825077
Ar  8.392098  4.479835  3.534337
Ar  6.919575  9.155189  1.790385
Ar  4.614530  6.446984  4.146539
Ar  7.377387  7.511841  6.541495
Ar  7.006317  6.461318  10.088449
Ar  6.762648  10.260156  8.865029
Ar  5.791624  4.609325  13.089775
Ar  10.233359  11.550697  9.517306
Ar  9.214732  5.150671  14.460911
Ar  4.906715  9.781247  12.264658
Ar  2.809474  9.608523  15.429683
Ar  6.792251  15.629573  14.170991
Ar  10.038061  10.481111  0.035038
Ar  8.475680  13.753139  17.059491
Ar  6.362763  10.664917  5.025986
Ar  7.569954  13.810875  3.324331
Ar  8.259118  13.774463  6.978622
Ar  6.088006  16.050640  9.181831
Ar  5.759990  13.529960  11.701649
Ar  9.576333  14.643553  10.724782
Ar  8.187655  11.298241  13.837074
Ar  2.842451  14.618418  14.828884
Ar  11.618162  0.924365  0.164476
Ar  12.634166  4.832409  16.222875
Ar  14.378361  1.685389  2.432941
Ar  11.909806  4.442231  2.326322
Ar  11.475711  1.186868  4.705343
Ar  15.175934  3.995108  5.054623
Ar  14.028799  1.335151  7.162079
Ar  10.540054  4.403858  6.828296
Ar  11.129265  1.260325  9.593494
Ar  14.390616  1.889385  10.668757
Ar  14.447671  0.225016  14.544549
Ar  11.934137  2.456911  13.876741
Ar  9.630456  6.710946  0.437605
Ar  12.436705  8.985643  14.765893
Ar  15.332964  6.432037  1.481767
Ar  12.441616  8.400416  1.770829
Ar  9.590973  8.397938  3.968198
Ar  13.589999  7.127169  4.586792
Ar  14.317120  5.820678  8.391387
Ar  11.213229  8.119470  7.909886
Ar  10.153287  4.829443  11.169852
Ar  14.772371  8.543704  10.449319
Ar  13.362289  5.861829  12.429264
Ar  10.306642  8.355181  12.021408
Ar  13.055495  12.318022  15.900346
Ar  13.945812  15.170088  0.584357
Ar  13.654730  12.384736  3.296119
Ar  10.977496  15.373635  2.688771
Ar  10.347434  12.131044  4.662887
Ar  13.943725  14.976898  5.501876
Ar  13.636460  10.849292  6.760597
Ar  12.066925  15.235468  8.321274
Ar  13.190563  12.737116  11.987270
Ar  12.639473  16.312393  11.795957
Ar  16.708404  13.905977  13.578638
Ar  11.504460  15.107871  14.823549
108
Frame 73 box=17.158430
Ar  0.254629  16.522132  16.277932
Ar  2.469730  3.045655  17.154955
Ar  2.726290  16.687135  3.146564
Ar  0.399284  2.774963  2.759407
Ar  17.038667  0.427821  5.428400
Ar  3.141290  2.898015  4.991118
Ar  3.458058  1.112011  8.073544
Ar  0.537164  5.086247  7.915446
Ar  15.594050  15.692948  9.583280
Ar  0.189180  1.723579  8.838942
Ar  0.060639  0.448439  12.170687
Ar  16.243635  3.266191  16.913267
Ar  15.899602  6.350233  14.847451
Ar  2.796994  6.828647  13.505738
Ar  1.491731  6.736171  0.141036
Ar  16.120773  9.636452  3.793282
Ar  0.969555  6.224512  4.273515
Ar  3.237099  9.208074  6.011367
Ar  3.935765  5.848081  7.421130
Ar  17.050191  8.944088  7.230302
Ar  16.691104  5.071111  11.337401
Ar  1.701735  8.180491  10.316926
Ar  1.173383  3.211702  14.023885
Ar  16.350484  9.711376  12.794033
Ar  15.999057  9.348064  17.014600
Ar  3.755757  13.499631  0.109819
Ar  3.110017  9.666948  2.060702
Ar  0.043361  14.062020  2.892978
Ar  0.067280  12.271988  6.077511
Ar  2.954159  13.000055  4.250185
Ar  3.553347  12.535050  7.925252
Ar  1.953955  15.331625  6.816447
Ar  16.301002  11.594850  9.681916
Ar  1.779739  14.736387  10.401709
Ar  1.875524  11.818515  12.351230
Ar  0.278317  12.534290  16.783762
Ar  5.925037  16.336901  0.814148
Ar  8.475709  2.555860  0.490744
Ar  8.139609  0.475844  3.494854
Ar  5.497974  2.708542  2.391769
Ar  5.167473  16.027851  5.429289
Ar  6.642621  3.877775  6.413872
Ar  8.883826  0.000204  6.993000
Ar  2.973724  4.170627  10.553506
Ar  3.856278  0.942862  11.722838
Ar  6.359737  2.979090  9.954597
Ar  8.257160  1.267016  13.467372
Ar  5.063174  1.604132  15.251106
Ar  5.871717  5.476782  0.216018
Ar  7.517524  8.572160  15.101757
Ar  8.302975  4.833718  3.425609
Ar  6.513803  8.721437  1.674868
Ar  4.853524  6.010340  3.559221
Ar  7.308749  7.321889  6.833093
Ar  6.729658  6.835133  10.453730
Ar  6.291076  10.556595  9.039517
Ar  5.976187  4.529386  13.247543
Ar  10.564571  11.424452  9.805890
Ar  9.173170  5.110732  14.362198
Ar  4.925270  9.806761  12.284847
Ar  3.477408  9.733035  15.236552
Ar  6.181029  15.326268  14.711921
Ar  9.691686  10.253100  0.313151
Ar  8.583309  13.756043  0.337981
Ar  6.487231  10.665018  4.898577
Ar  7.574979  13.805203  3.629891
Ar  7.949774  13.267453  7.297076
Ar  6.297579  15.986508  9.015770
Ar  4.744252  13.876101  11.578377
Ar  9.007421  14.297664  11.101498
Ar  8.958151  11.720015  13.675534
Ar  2.874347  14.712650  14.095695
Ar  11.959536  1.326215  0.235252
Ar  12.699897  4.907829  16.791787
Ar  14.561547  0.892035  2.669573
Ar  12.003598  4.823312  2.993003
Ar  11.493727  1.536418  4.301363
Ar  15.154235  4.007416  4.720447
Ar  14.028799  1.335151  7.162079
Ar  9.909891  4.808554  7.238982
Ar  10.774612  1.593872  9.119062
Ar  14.727063  2.185593  10.950471
Ar  14.447671  0.225016  14.544549
Ar  11.849306  2.683957  13.592690
Ar  9.650490  6.617595  0.142416
Ar  12.636464  8.295391  15.422442
Ar  15.469962  6.474648  1.559731
Ar  12.812402  8.430111  2.184182
Ar  9.807717  8.108640  4.059641
Ar  13.359265  7.653064  5.372290
Ar  13.839819  5.937101  8.521671
Ar  11.036160  8.723367  7.602075
Ar  10.100630  4.620874  10.758029
Ar  14.115378  8.857026  10.438502
Ar  12.944569  6.024143  12.768215
Ar  10.322571  8.312065  11.712307
Ar  13.300976  11.947223  16.348546
Ar  14.090811  15.340036  0.682460
Ar  13.561655  12.772276  3.116393
Ar  10.755236  15.602211  2.240052
Ar  10.756887  11.407910  4.707407
Ar  14.453087  15.021989  5.937660
Ar  14.077283  11.331441  6.873297
Ar  11.541401  15.105390  8.141859
Ar  13.415861  12.403924  11.958886
Ar  12.300463  16.790617  11.652236
Ar  16.391038  14.088733  13.292215
Ar  11.532622  15.339319  15.314062
108
Frame 74 box=17.158430
Ar  0.778734  16.700780  17.146166
Ar  2.781882  2.436588  0.379278
Ar  3.200431  16.270909  2.794043
Ar  0.709108  3.240709  3.199240
Ar  0.075946  0.395677  5.147564
Ar  3.215664  3.204207  5.973247
Ar  4.068404  1.265485  8.451836
Ar  17.137270  4.983216  7.854151
Ar  15.219489  15.755655  10.039312
Ar  0.189180  1.723579  8.838942
Ar  0.354750  0.073121  12.624394
Ar  16.074791  2.524098  16.329055
Ar  15.899602  6.350233  14.847451
Ar  2.900011  6.831448  13.828037
Ar  1.443562  6.901933  17.030964
Ar  16.229565  9.581301  3.964853
Ar  1.236299  6.641083  4.262583
Ar  3.394990  9.321530  5.543876
Ar  3.861119  6.332522  7.867585
Ar  16.597661  8.369315  7.532782
Ar  16.373909  5.698003  11.573300
Ar  2.278751  7.843353  10.714640
Ar  1.274204  3.319174  13.651878
Ar  16.229186  10.505540  13.259187
Ar  16.123217  9.370906  16.513456
Ar  4.309318  13.320923  0.425527
Ar  3.124109  10.035569  2.088735
Ar  17.111346  14.329284  2.763538
Ar  0.067280  12.271988  6.077511
Ar  3.702799  12.805230  4.203987
Ar  4.243230  12.859187  8.132458
Ar  1.953955  15.331625  6.816447
Ar  16.205786  11.923699  9.828435
Ar  1.752923  14.686017  10.360989
Ar  2.283804  11.183563  12.065067
Ar  0.546904  12.465558  16.756170
Ar  5.847395  16.507613  0.838326
Ar  8.815789  2.314905  0.054470
Ar  7.980406  0.127462  3.191194
Ar  5.869441  2.516007  2.230076
Ar  5.536101  16.143629  5.488553
Ar  6.935276  3.439434  6.475123
Ar  8.666925  17.052288  6.708707
Ar  2.774625  4.073821  10.578475
Ar  4.170379  0.877816  11.935814
Ar  6.499283  3.188423  9.959054
Ar  7.854533  1.185202  12.657606
Ar  5.426054  1.766191  15.511725
Ar  4.616832  6.030186  17.101716
Ar  7.712185  8.848055  14.847902
Ar  8.721679  4.290928  3.272631
Ar  6.513803  8.721437  1.674868
Ar  4.940079  5.765401  3.798913
Ar  7.722864  7.486864  6.744648
Ar  6.729658  6.835133  10.453730
Ar  6.782664  10.084733  9.129619
Ar  5.269934  4.277565  13.213415
Ar  10.626678  11.246113  9.698083
Ar  9.173170  5.110732  14.362198
Ar  5.286447  9.514028  12.671467
Ar  2.975140  10.239577  15.467849
Ar  6.191062  15.165024  14.601130
Ar  10.073920  10.801903  0.979270
Ar  9.008493  14.076626  0.190820
Ar  6.315079  10.543426  4.808061
Ar  8.110534  13.884226  3.889546
Ar  8.492778  13.312686  7.161583
Ar  6.484166  15.817578  9.111304
Ar  5.570901  13.340319  11.555126
Ar  9.101557  14.299696  10.730534
Ar  9.853750  11.545513  13.804302
Ar  2.627934  14.854432  14.157615
Ar  12.219130  1.580679  0.211066
Ar  12.422598  4.895075  16.571090
Ar  14.793019  0.555110  2.665480
Ar  11.936543  5.144944  3.070786
Ar  11.306043  1.492917  4.774059
Ar  15.210742  4.272522  4.928545
Ar  14.108379  1.281461  7.111617
Ar  11.097703  4.378878  6.723888
Ar  10.945273  1.793289  9.009582
Ar  14.455420  2.750563  10.869623
Ar  14.425260  0.392848  13.730387
Ar  11.027262  2.081438  14.070021
Ar  9.374713  6.492435  0.454037
Ar  12.311101  8.506641  15.150834
Ar  15.597739  6.112963  1.309467
Ar  13.009714  8.412181  1.827805
Ar  9.821862  7.705688  4.368970
Ar  13.581624  7.531211  5.364950
Ar  13.984306  5.612524  8.909203
Ar  11.284681  8.359717  7.975350
Ar  9.955327  4.597215  10.951934
Ar  13.418059  8.827423  10.567741
Ar  12.793442  5.495811  12.713371
Ar  9.928251  8.056798  11.809607
Ar  12.871681  11.840127  15.910518
Ar  14.825622  15.454656  0.037971
Ar  13.778696  12.541215  2.735782
Ar  11.592538  15.589562  2.662841
Ar  10.769734  11.787391  4.782637
Ar  14.582096  15.229877  5.687337
Ar  13.345177  11.136811  7.208141
Ar  11.719545  14.860457  8.477233
Ar  12.888605  12.546816  12.121371
Ar  11.525562  16.682672  11.828213
Ar  16.246997  13.755612  13.423563
Ar  11.579807  15.894168  15.500576
108
Frame 75 box=17.158430
Ar  0.493518  16.877978  0.296010
Ar  2.781882  2.436588  0.379278
Ar  3.085057  16.729673  2.594628
Ar  0.970278  3.403555  2.814380
Ar  0.090042  0.325691  5.649474
Ar  3.486968  2.693666  5.273928
Ar  3.897559  1.294360  8.709246
Ar  0.979906  4.827591  7.091712
Ar  15.219489  15.755655  10.039312
Ar  0.356549  1.410717  8.976967
Ar  17.146763  16.759597  13.009880
Ar  16.440454  2.920194  16.647412
Ar  15.866894  6.693773  14.822012
Ar  3.058423  6.682461  13.981659
Ar  1.476909  7.034596  0.475293
Ar  16.141539  9.887635  3.501974
Ar  0.671562  7.011969  4.114986
Ar  3.222399  9.403068  5.583970
Ar  4.673032  5.641860  8.077601
Ar  16.698422  8.400471  7.072961
Ar  16.884109  6.423402  11.371422
Ar  3.102683  7.653199  10.769451
Ar  0.953835  3.073039  13.469432
Ar  15.964804  9.776632  13.222881
Ar  16.058450  9.547891  0.077062
Ar  4.488613  13.263168  0.686459
Ar  3.124109  10.035569  2.088735
Ar  17.111346  14.329284  2.763538
Ar  0.500022  12.069517  6.285845
Ar  3.547432  12.781437  4.003036
Ar  4.159875  12.178636  7.671877
Ar  2.433667  15.280746  6.718060
Ar  16.394544  11.956768  10.282898
Ar  2.050830  15.037254  10.476384
Ar  2.283804  11.183563  12.065067
Ar  0.790816  12.577124  16.544899
Ar  6.224041  16.312747  0.563278
Ar  9.229136  2.372947  17.141679
Ar  7.980406  0.127462  3.191194
Ar  5.860717  2.392870  2.024010
Ar  5.459808  15.867523  5.218186
Ar  6.855531  3.141771  6.682353
Ar  8.408927  0.050998  6.668555
Ar  2.774625  4.073821  10.578475
Ar  3.580421  0.958639  12.209189
Ar  6.499283  3.188423  9.959054
Ar  7.854533  1.185202  12.657606
Ar  5.327134  1.863635  15.522239
Ar  4.657456  5.318250  16.758709
Ar  6.956240  8.233386  15.436653
Ar  8.721679  4.290928  3.272631
Ar  6.647594  8.737236  1.532286
Ar  5.450091  5.734314  4.168074
Ar  7.914011  7.122380  6.443846
Ar  6.954205  6.768415  11.039664
Ar  6.780810  10.110087  8.150110
Ar  5.751259  4.448195  13.282308
Ar  10.626678  11.246113  9.698083
Ar  9.211882  5.209502  14.193011
Ar  5.505977  9.991575  12.268017
Ar  3.618850  10.205480  15.667672
Ar  6.601788  15.420237  14.113085
Ar  9.933840  10.457122  1.176245
Ar  8.845264  13.912782  0.163964
Ar  6.524381  10.688218  4.476703
Ar  7.558153  13.788005  3.302024
Ar  7.998583  13.128855  7.154586
Ar  5.919659  15.150620  8.776517
Ar  5.120464  13.244329  11.877639
Ar  8.702556  14.945277  11.389569
Ar  9.540786  11.799455  13.522889
Ar  3.053306  14.502814  14.603185
Ar  12.974908  1.388212  0.132048
Ar  12.617862  4.867660  16.245369
Ar  14.977656  0.453876  2.931298
Ar  12.027321  4.906302  2.901210
Ar  11.306043  1.492917  4.774059
Ar  15.097479  4.044649  4.749318
Ar  14.155066  1.153329  7.158455
Ar  10.923245  4.649299  6.213654
Ar  11.040293  1.901646  8.962267
Ar  14.455420  2.750563  10.869623
Ar  14.206892  0.828771  14.062581
Ar  11.134865  2.296669  13.911566
Ar  9.374713  6.492435  0.454037
Ar  12.345833  8.401496  15.354941
Ar  15.193589  5.638676  1.557457
Ar  13.009053  8.891819  2.091752
Ar  10.107573  8.090486  4.009860
Ar  13.623628  7.556520  5.642619
Ar  13.953829  5.315733  8.375778
Ar  11.099230  8.021124  8.032358
Ar  10.432954  4.543711  11.167549
Ar  14.298334  8.877925  9.949193
Ar  13.039387  5.857196  12.742915
Ar  10.405011  7.898892  12.426733
Ar  12.871681  11.840127  15.910518
Ar  14.468817  15.345418  16.761160
Ar  13.872823  12.328483  2.205466
Ar  11.308376  15.388221  2.817945
Ar  10.826425  11.719152  4.451621
Ar  14.787289  14.825656  5.663787
Ar  13.771731  10.842661  7.060286
Ar  12.189225  14.752628  8.001328
Ar  12.867571  13.541161  11.934556
Ar  11.747144  17.109940  11.699699
Ar  16.139259  13.546874  13.660773
Ar  10.783102  16.010521  15.135593
108
Frame 76 box=17.158430
Ar  0.307639  16.808703  0.595060
Ar  2.504187  2.488229  0.282296
Ar  3.079050  17.072066  2.705133
Ar  0.675782  3.727677  3.069417
Ar  17.142027  0.254395  5.086230
Ar  3.569049  2.601308  5.064797
Ar  4.004014  1.887740  8.180708
Ar  0.979906  4.827591  7.091712
Ar  15.074594  15.814652  10.152448
Ar  0.435850  1.519474  9.463184
Ar  0.511055  16.709858  13.178803
Ar  16.291576  3.081118  16.762785
Ar  16.555092  6.413997  14.562331
Ar  3.063720  7.062305  14.436956
Ar  1.424123  6.993493  0.194594
Ar  16.527046  10.545740  3.730977
Ar  0.768577  7.320326  4.372306
Ar  3.525816  8.803435  5.199279
Ar  4.673032  5.641860  8.077601
Ar  0.716812  8.524462  8.113182
Ar  16.511793  5.848127  10.479949
Ar  3.102683  7.653199  10.769451
Ar  0.447207  2.975368  13.592202
Ar  16.104482  9.665255  13.891458
Ar  16.092438  10.013320  0.356065
Ar  4.374440  12.972306  0.489443
Ar  2.829692  9.637553  1.821591
Ar  0.019823  13.649266  3.089445
Ar  0.858907  11.767294  6.710472
Ar  3.294864  12.804444  4.031412
Ar  4.562813  12.038012  8.415242
Ar  2.081376  15.366707  6.594016
Ar  16.108843  12.110895  9.997352
Ar  2.287747  14.418659  10.040151
Ar  2.076123  11.429209  12.180551
Ar  0.747467  12.610316  16.406446
Ar  6.430617  16.306938  0.790283
Ar  9.171193  1.886670  0.391308
Ar  7.849426  0.616794  3.522038
Ar  5.406747  2.835083  2.028808
Ar  5.459808  15.867523  5.218186
Ar  7.100162  3.246414  5.908800
Ar  8.817511  16.610799  6.876716
Ar  2.673000  4.069059  10.701688
Ar  4.677087  0.411112  12.444709
Ar  7.321325  2.839924  9.622078
Ar  8.296332  1.222806  12.582894
Ar  5.725683  2.196479  15.346818
Ar  4.844480  5.518963  16.907414
Ar  6.532972  7.540538  14.719320
Ar  8.721679  4.290928  3.272631
Ar  6.304462  9.113206  1.194889
Ar  5.450091  5.734314  4.168074
Ar  8.076279  6.550910  7.188541
Ar  7.226828  6.920941  10.974089
Ar  7.178877  9.676001  7.804636
Ar  5.796871  4.359347  12.886324
Ar  10.491560  11.284321  9.796346
Ar  9.220661  5.011831  14.243199
Ar  5.825657  10.381683  12.149417
Ar  3.749959  10.419424  15.151956
Ar  7.083657  15.269505  14.319320
Ar  10.046810  10.530457  0.674556
Ar  8.185774  13.496401  16.811612
Ar  7.121909  10.251294  4.242527
Ar  7.915959  14.067379  3.364842
Ar  7.962319  13.235609  6.877845
Ar  5.780064  16.010875  9.222262
Ar  5.269717  13.610296  11.776959
Ar  9.272541  14.834846  11.911742
Ar  10.331018  11.263005  13.850951
Ar  3.000072  14.998260  14.675650
Ar  12.909719  1.463057  17.086722
Ar  12.269877  5.126703  16.284451
Ar  14.165534  0.564491  3.083799
Ar  12.176882  3.964577  2.429977
Ar  10.946291  1.320307  4.927837
Ar  14.766696  4.304317  4.621578
Ar  13.953101  0.795421  6.957941
Ar  10.824531  4.881782  6.185561
Ar  11.015388  1.732497  8.846758
Ar  14.318722  2.343084  10.618020
Ar  14.390271  0.610824  13.917823
Ar  11.476800  2.349881  13.946512
Ar  8.958074  6.749789  0.384717
Ar  12.468256  8.460930  15.242315
Ar  15.502215  6.221096  1.324184
Ar  13.031328  8.967289  1.675722
Ar  10.254595  8.178538  3.928300
Ar  13.579418  7.821359  5.073343
Ar  13.687578  5.275209  8.465138
Ar  11.290249  8.310135  7.908574
Ar  10.069008  4.772412  10.951811
Ar  14.054391  8.963485  10.201991
Ar  13.467508  5.751146  12.459402
Ar  10.618021  8.441646  11.809253
Ar  13.168161  12.015881  16.250930
Ar  14.213296  15.188985  17.156391
Ar  13.918868  12.186385  2.270785
Ar  11.523302  14.828886  2.726301
Ar  11.703242  11.967088  5.242245
Ar  14.508219  14.690966  5.451281
Ar  14.787550  11.101329  6.882557
Ar  12.116499  14.658261  8.008375
Ar  12.946046  13.023226  11.954858
Ar  11.747144  17.109940  11.699699
Ar  15.766035  13.962656  14.230878
Ar  11.176350  15.247812  15.846417
108
Frame 77 box=17.158430
Ar  0.568607  16.835113  0.441103
Ar  2.587274  2.702589  0.117400
Ar  3.148727  16.712203  2.678854
Ar  0.364014  3.744724  2.735625
Ar  0.040431  0.929817  4.804136
Ar  3.965901  2.225146  4.570217
Ar  3.616260  1.529171  8.111729
Ar  1.141895  4.482686  6.878683
Ar  15.040557  15.740397  9.708120
Ar  16.898280  1.888469  8.821752
Ar  0.766018  16.554088  13.333681
Ar  15.917823  3.305708  17.011983
Ar  16.280189  6.008608  14.838618
Ar  2.886605  7.067314  14.270286
Ar  1.424123  6.993493  0.194594
Ar  16.527046  10.545740  3.730977
Ar  0.202913  7.355732  4.699190
Ar  3.428682  9.232525  5.075356
Ar  4.421996  5.523210  7.420858
Ar  0.716812  8.524462  8.113182
Ar  16.786801  6.033762  10.606269
Ar  3.633276  7.646301  10.532313
Ar  0.570137  3.009061  13.207748
Ar  16.332068  9.794295  13.483831
Ar  15.896967  10.183855  0.026558
Ar  4.374440  12.972306  0.489443
Ar  2.534272  9.806052  1.447753
Ar  17.149839  14.506821  3.029762
Ar  1.083067  11.883820  6.933586
Ar  3.028977  12.678958  4.247916
Ar  4.275506  12.083752  9.075342
Ar  1.857178  15.449750  6.642353
Ar  16.077343  12.330923  10.153471
Ar  2.008176  15.324374  10.412831
Ar  2.161822  12.125821  12.075275
Ar  0.841925  13.163027  16.808230
Ar  5.923070  16.175917  0.641678
Ar  8.972163  2.139694  16.878703
Ar  7.743609  0.777878  3.617262
Ar  6.002744  3.036085  1.762683
Ar  5.464413  15.476903  5.186256
Ar  7.044104  3.291406  6.077906
Ar  8.235519  16.831002  8.283663
Ar  3.022095  4.109036  10.831262
Ar  4.389350  0.181406  12.023863
Ar  7.250974  2.909903  9.526359
Ar  7.895503  1.191796  12.237454
Ar  5.748205  2.054166  15.470739
Ar  5.149437  5.988893  0.020274
Ar  7.140470  7.783677  14.412601
Ar  8.932633  4.826845  3.447068
Ar  5.996769  9.008579  1.090938
Ar  4.835010  5.927005  3.816019
Ar  7.829189  6.664613  6.781095
Ar  6.991535  6.841776  10.721632
Ar  6.920844  9.713831  8.080187
Ar  6.011329  4.039369  12.692765
Ar  10.746659  11.443133  9.616970
Ar  9.463348  5.445278  14.057987
Ar  5.989294  10.671226  11.782614
Ar  3.944016  10.314061  14.930389
Ar  7.138678  15.215288  14.357832
Ar  9.939261  10.626810  1.229821
Ar  7.920815  12.866541  16.977347
Ar  7.395250  10.530103  4.337191
Ar  7.915959  14.067379  3.364842
Ar  8.213997  13.226444  7.905053
Ar  5.253133  15.632072  8.541292
Ar  5.072281  13.970620  11.699799
Ar  8.926874  14.348816  11.153214
Ar  9.360239  11.602628  13.432485
Ar  3.229628  14.743198  14.717459
Ar  12.720781  1.193250  16.946926
Ar  12.189704  4.910492  15.761487
Ar  14.326328  0.275600  2.895273
Ar  11.929849  4.156287  2.335607
Ar  10.959367  1.498401  4.892936
Ar  14.402835  3.872152  4.782463
Ar  13.961892  0.569116  6.395104
Ar  10.934253  4.865727  6.279172
Ar  10.853479  2.144123  8.844854
Ar  13.796298  2.511223  10.645416
Ar  14.343817  0.279775  14.128893
Ar  11.104311  2.383724  13.679414
Ar  9.336243  6.764474  0.492803
Ar  12.002007  8.380277  15.113940
Ar  15.477933  6.774534  1.028656
Ar  13.031328  8.967289  1.675722
Ar  9.985422  8.236520  3.770122
Ar  14.069271  8.177908  4.932768
Ar  13.687578  5.275209  8.465138
Ar  10.928080  8.500082  7.059590
Ar  10.542763  5.523371  10.205529
Ar  14.014510  8.992457  10.118901
Ar  13.605624  6.317977  12.534415
Ar  10.203836  8.309412  11.758031
Ar  12.406263  11.962894  16.035056
Ar  14.390896  14.958093  16.930537
Ar  13.918868  12.186385  2.270785
Ar  11.538091  14.667995  3.409737
Ar  11.537999  11.576061  5.507236
Ar  14.487503  14.356461  5.476718
Ar  14.703165  11.063098  6.771285
Ar  11.487045  14.804992  8.210826
Ar  12.754985  12.897995  11.647452
Ar  11.511558  16.479273  11.602728
Ar  15.753994  13.356886  13.848298
Ar  10.524134  15.590177  15.179823
108
Frame 78 box=17.158430
Ar  0.226923  0.012218  17.052211
Ar  2.587274  2.702589  0.117400
Ar  3.018997  16.934434  2.714560
Ar  0.364014  3.744724  2.735625
Ar  0.375138  1.131134  4.706236
Ar  3.686765  2.719587  4.278354
Ar  3.848536  1.873741  7.856798
Ar  1.372377  4.525564  7.203083
Ar  14.643671  15.376678  9.164200
Ar  16.676845  1.903634  8.462820
Ar  1.091613  16.632630  13.577625
Ar  15.783429  3.068057  16.605291
Ar  16.141229  6.167861  15.012483
Ar  2.577939  7.002562  13.856147
Ar  1.781470  6.691063  0.411042
Ar  16.501175  11.066359  4.069542
Ar  0.510779  7.263047  4.865964
Ar  3.675443  9.339332  5.543290
Ar  4.471774  6.022850  7.807109
Ar  0.393722  8.444128  8.567029
Ar  16.636629  5.861399  10.660465
Ar  3.718011  8.334252  10.653430
Ar  0.873749  3.453797  13.637463
Ar  16.196732  9.212469  12.809144
Ar  15.328490  9.943289  16.059536
Ar  4.430196  12.470064  0.533394
Ar  2.249477  9.580954  2.429593
Ar  17.061105  14.835154  2.633398
Ar  1.065883  12.321916  7.133848
Ar  2.746433  12.979525  4.092099
Ar  4.229458  12.486859  8.737392
Ar  2.106305  15.759981  6.621457
Ar  16.521642  12.690016  10.441031
Ar  1.927566  15.790312  10.044432
Ar  2.128239  11.879975  12.418230
Ar  1.124192  12.854959  16.649128
Ar  6.266711  16.227905  0.475343
Ar  8.843235  1.995357  16.910466
Ar  7.645803  0.740767  3.269769
Ar  5.881006  3.306285  1.750747
Ar  5.414908  15.400681  4.810979
Ar  6.860522  3.331101  6.029093
Ar  8.235519  16.831002  8.283663
Ar  2.675728  3.854139  10.384914
Ar  4.657137  0.085030  12.153359
Ar  7.475980  2.905782  9.444476
Ar  8.628684  0.466590  11.936552
Ar  5.574870  1.980384  15.281103
Ar  4.743204  5.510090  16.777357
Ar  7.187573  8.633544  14.808367
Ar  8.838729  4.511863  3.283131
Ar  6.015152  9.226125  1.452229
Ar  5.908333  6.547516  3.696812
Ar  7.829189  6.664613  6.781095
Ar  7.001373  6.956117  10.634810
Ar  6.805756  9.976144  8.419966
Ar  6.506111  4.061729  12.732498
Ar  10.496359  11.147061  9.563956
Ar  9.268125  5.450486  14.227625
Ar  5.989294  10.671226  11.782614
Ar  4.039528  10.229890  14.781378
Ar  7.139994  15.271813  14.371746
Ar  10.518203  11.137758  1.370396
Ar  7.590836  12.374495  16.700976
Ar  7.116451  10.033418  4.835409
Ar  8.147596  14.252990  2.666342
Ar  8.142274  13.313515  7.951921
Ar  5.253133  15.632072  8.541292
Ar  5.072281  13.970620  11.699799
Ar  8.808989  14.088288  11.105885
Ar  9.105175  11.748661  13.771369
Ar  3.684123  14.677915  14.702826
Ar  12.089388  1.240585  0.053025
Ar  12.891367  4.669874  16.334209
Ar  14.093712  1.289230  2.901058
Ar  12.039995  4.264405  2.433839
Ar  10.150195  1.264832  5.239233
Ar  14.554975  4.567468  5.031517
Ar  13.772999  0.985322  6.852881
Ar  10.889095  4.966008  6.158898
Ar  10.688874  2.045700  8.763034
Ar  14.657267  2.148123  11.216522
Ar  14.564523  0.204935  14.350547
Ar  11.104311  2.383724  13.679414
Ar  9.558847  6.653376  0.624585
Ar  11.862784  8.125820  15.602767
Ar  15.432972  6.438410  1.227676
Ar  13.031328  8.967289  1.675722
Ar  10.124132  8.099064  3.891653
Ar  13.552862  8.306022  5.042716
Ar  13.739215  5.310214  8.426707
Ar  11.338702  8.380567  7.710976
Ar  10.302914  5.528231  10.218375
Ar  13.119370  9.599574  11.018800
Ar  13.702495  5.570425  12.617141
Ar  10.064105  8.839498  12.228525
Ar  12.189412  12.264897  15.077658
Ar  14.790160  14.620983  17.015181
Ar  13.355152  12.490043  2.495501
Ar  11.544346  15.620373  3.518576
Ar  10.762000  12.073946  5.574728
Ar  14.725025  14.043015  5.327003
Ar  14.599733  10.657251  7.427816
Ar  11.508300  14.885199  8.341769
Ar  12.754985  12.897995  11.647452
Ar  12.426021  16.688087  11.579446
Ar  15.975072  13.417967  13.746146
Ar  10.967548  15.858151  15.107460
108
Frame 79 box=17.158430
Ar  0.226923  0.012218  17.052211
Ar  2.587274  2.702589  0.117400
Ar  3.178458  16.967412  2.507658
Ar  0.364014  3.744724  2.735625
Ar  0.002655  0.528595  4.923733
Ar  3.408877  3.151295  4.299423
Ar  3.946948  1.609043  7.645257
Ar  1.392130  4.272761  7.406095
Ar  15.368972  15.551683  9.376428
Ar  16.929803  1.608826  8.812080
Ar  1.017766  17.137281  13.682711
Ar  15.061689  2.703023  16.883742
Ar  16.163575  7.204613  15.418249
Ar  2.729527  6.426433  14.204167
Ar  2.221968  6.366811  0.800230
Ar  16.467987  10.268078  3.232895
Ar  0.128023  7.581192  5.509560
Ar  3.507270  9.261817  6.390858
Ar  4.585518  5.938562  7.812113
Ar  0.251096  8.618047  8.633163
Ar  17.006243  6.303215  11.005721
Ar  3.380511  7.883393  10.781836
Ar  0.434353  3.462942  13.413337
Ar  16.827593  9.555828  12.550862
Ar  15.166712  10.779723  16.092880
Ar  4.439022  12.753577  0.886915
Ar  3.202212  9.202664  2.779596
Ar  0.262528  14.774319  2.840459
Ar  0.926508  11.856526  6.810622
Ar  3.390925  12.538765  4.429063
Ar  3.539278  12.038538  8.794081
Ar  2.390008  15.624321  6.311057
Ar  16.227680  12.045727  10.065913
Ar  1.751924  15.699828  10.725920
Ar  1.751816  12.265785  12.649899
Ar  0.853749  12.547213  16.658382
Ar  6.266711  16.227905  0.475343
Ar  8.264500  2.329961  16.718257
Ar  7.645803  0.740767  3.269769
Ar  5.771666  3.117009  1.484203
Ar  5.320782  15.525479  4.763888
Ar  7.065247  3.179633  5.861935
Ar  8.356517  17.099809  7.548569
Ar  3.483427  3.654439  10.818852
Ar  5.055476  0.237314  12.168768
Ar  7.039766  3.090386  9.517840
Ar  8.628684  0.466590  11.936552
Ar  4.694370  1.513234  15.232540
Ar  5.748566  5.994955  16.741310
Ar  7.213601  8.872522  14.763529
Ar  9.079765  4.467214  3.042578
Ar  6.110536  9.591884  0.777479
Ar  5.996241  6.481926  3.773582
Ar  7.829189  6.664613  6.781095
Ar  6.886184  6.635898  10.391109
Ar  6.289034  9.684095  8.111935
Ar  6.497847  3.860199  13.024700
Ar  10.513715  10.994368  9.740395
Ar  9.032681  5.277147  14.795149
Ar  6.341096  10.497970  11.744883
Ar  4.195823  10.870090  14.969257
Ar  7.208255  15.566094  14.260070
Ar  9.651201  10.675385  1.152243
Ar  7.776450  12.643805  16.734038
Ar  6.980774  10.078421  4.665128
Ar  8.536428  13.459400  3.465836
Ar  7.471444  13.133581  7.087782
Ar  5.253133  15.632072  8.541292
Ar  5.130933  13.720054  11.634277
Ar  8.512253  13.964090  10.626870
Ar  9.105175  11.748661  13.771369
Ar  4.005796  14.913045  14.936591
Ar  11.536459  1.199196  16.904831
Ar  12.627405  5.353446  15.927690
Ar  13.858315  1.126678  2.727362
Ar  12.060228  4.188553  1.889309
Ar  10.374085  1.622401  5.174963
Ar  15.212258  4.349822  5.328528
Ar  13.766499  0.869236  7.159134
Ar  11.140260  4.907802  6.127008
Ar  10.806744  2.296589  9.045813
Ar  14.463662  1.874020  11.148308
Ar  14.571433  17.100210  14.040647
Ar  11.289049  2.755849  13.358204
Ar  9.404131  6.869481  0.997890
Ar  11.409661  8.782266  15.625562
Ar  15.176017  6.232026  1.968353
Ar  12.721332  8.953558  1.820525
Ar  10.257960  8.096849  4.057039
Ar  13.923212  7.888000  5.084059
Ar  14.050117  6.162215  8.175346
Ar  10.981220  8.026646  7.823747
Ar  10.302914  5.528231  10.218375
Ar  13.130180  9.518775  11.293450
Ar  13.382800  5.390329  12.394951
Ar  9.661640  8.149517  12.373916
Ar  12.189412  12.264897  15.077658
Ar  14.160061  15.196391  17.153191
Ar  13.233793  12.420898  2.205969
Ar  11.544346  15.620373  3.518576
Ar  11.446835  11.063838  5.487804
Ar  14.562890  14.635215  5.960015
Ar  14.209532  10.828683  7.397873
Ar  11.314692  15.059142  8.484527
Ar  13.271979  12.887066  11.223189
Ar  11.857800  16.341317  11.706127
Ar  15.976402  13.585459  14.165742
Ar  10.535928  15.539056  14.907068
108
Frame 80 box=17.158430
Ar  0.393918  16.831338  0.265212
Ar  2.348893  3.080015  16.628164
Ar  2.803107  16.385152  3.017127
Ar  0.364014  3.744724  2.735625
Ar  0.118278  1.683722  5.487216
Ar  3.478256  2.881836  4.140585
Ar  3.383245  1.327562  7.545868
Ar  1.316375  4.390107  7.271577
Ar  15.576146  15.615954  9.981233
Ar  0.192487  1.768054  9.167472
Ar  0.622537  16.974731  13.647621
Ar  15.481448  3.601404  16.214332
Ar  15.918989  7.165357  14.342831
Ar  2.442156  5.838590  13.782295
Ar  2.414572  6.380340  0.962443
Ar  16.614932  10.147049  2.795144
Ar  0.617665  7.166674  5.440465
Ar  3.852308  9.095848  6.399343
Ar  4.668007  5.933436  7.483034
Ar  0.694411  8.995917  8.576837
Ar  17.006243  6.303215  11.005721
Ar  3.458380  8.279231  10.537366
Ar  16.430895  3.421733  12.885388
Ar  16.847610  9.664291  12.149134
Ar  15.347839  10.034067  16.574412
Ar  3.911480  12.639217  0.905115
Ar  3.419049  9.244593  2.539975
Ar  0.109441  13.609159  2.966605
Ar  0.625588  11.768947  6.413887
Ar  3.390925  12.538765  4.429063
Ar  3.559370  11.937228  8.734873
Ar  1.519725  15.205338  6.593389
Ar  16.426458  12.243745  9.783666
Ar  1.972877  15.934928  10.446643
Ar  1.795234  12.755907  12.160410
Ar  0.871462  12.302969  16.032336
Ar  6.023049  16.089723  0.498542
Ar  8.320267  1.389754  16.274246
Ar  7.645803  0.740767  3.269769
Ar  5.798807  3.171620  1.535038
Ar  5.775423  15.214118  4.983175
Ar  6.377232  2.987338  6.155390
Ar  8.156017  17.117625  8.060565
Ar  2.554180  3.825326  10.467554
Ar  5.365481  0.107053  11.716118
Ar  7.509430  3.396421  9.374320
Ar  8.838989  0.684509  12.494290
Ar  4.889670  1.288279  15.086071
Ar  5.893208  5.408756  15.882384
Ar  7.199586  8.634512  14.505015
Ar  8.684099  4.649828  3.342785
Ar  6.303674  9.765553  0.969402
Ar  5.106116  6.243313  2.945628
Ar  7.931492  6.749088  6.959397
Ar  6.431331  6.688206  10.798637
Ar  6.687211  9.647517  8.369211
Ar  6.592868  3.913780  12.868598
Ar  10.158617  10.735516  9.256217
Ar  9.441569  5.783708  14.689504
Ar  6.337450  10.528252  11.703314
Ar  4.264673  10.273818  15.151444
Ar  7.570443  14.834068  14.154872
Ar  10.224993  10.756442  1.859570
Ar  7.747396  12.475098  16.371607
Ar  6.478018  10.610181  4.657393
Ar  8.394965  13.323739  3.140752
Ar  7.726765  12.605897  7.218307
Ar  5.105743  15.677082  8.346805
Ar  5.130933  13.720054  11.634277
Ar  8.707543  13.390423  10.448021
Ar  9.424490  11.453547  13.288957
Ar  3.754326  14.962127  15.156802
Ar  11.688270  1.280293  0.460117
Ar  12.608443  5.872428  15.857676
Ar  14.584497  1.377792  2.420899
Ar  12.060228  4.188553  1.889309
Ar  10.532284  1.241118  5.079875
Ar  14.625484  4.067379  5.166361
Ar  13.840436  0.926891  6.471960
Ar  11.090328  4.971546  5.744064
Ar  11.032867  1.807844  8.974099
Ar  14.130182  2.116111  10.911977
Ar  14.293589  0.101103  14.199172
Ar  11.076660  2.944402  13.194765
Ar  8.933580  7.014636  0.782464
Ar  10.759885  8.789473  15.774920
Ar  15.995877  6.785477  1.857193
Ar  13.405338  8.932534  2.131419
Ar  9.914882  8.152121  3.967853
Ar  14.100216  7.617805  5.728894
Ar  14.503143  5.550599  8.732216
Ar  11.190541  7.921057  7.289943
Ar  10.311018  5.090505  10.433724
Ar  13.081662  8.978279  12.045407
Ar  13.382800  5.390329  12.394951
Ar  9.577560  7.971833  12.144406
Ar  12.189412  12.264897  15.077658
Ar  14.278108  15.515527  0.101750
Ar  13.636104  12.583207  2.613991
Ar  12.045840  15.707766  3.718658
Ar  11.703582  11.942210  5.448710
Ar  14.581968  14.573907  6.241137
Ar  14.033963  10.078899  8.113516
Ar  11.173020  14.939726  8.062088
Ar  13.077921  12.539337  11.362699
Ar  12.134807  16.528912  11.362495
Ar  15.654525  13.984524  13.956657
Ar  10.988383  15.685583  15.394895
108
Frame 81 box=17.158430
Ar  0.332748  16.646974  0.146258
Ar  1.712913  2.906643  16.767031
Ar  2.756654  16.681426  3.051051
Ar  0.338116  3.356704  2.799094
Ar  0.366118  1.040673  5.321193
Ar  3.224601  3.396273  4.681359
Ar  3.539526  1.300204  7.966466
Ar  1.122634  4.859370  7.310963
Ar  15.576146  15.615954  9.981233
Ar  0.439028  1.574585  9.265898
Ar  0.973184  17.116560  13.260045
Ar  14.734265  3.265344  16.509615
Ar  16.077787  6.716676  14.429068
Ar  2.806801  5.400564  14.180641
Ar  2.637713  6.177756  0.802845
Ar  16.614932  10.147049  2.795144
Ar  0.604368  7.948409  5.538454
Ar  3.823398  9.152601  6.221444
Ar  4.668007  5.933436  7.483034
Ar  17.032491  8.861731  9.056649
Ar  17.158078  5.807384  10.973514
Ar  2.987990  8.522636  11.343912
Ar  16.718161  3.244856  12.885993
Ar  16.543912  10.064803  12.713425
Ar  15.276602  10.426701  16.591088
Ar  4.344232  12.864760  0.788106
Ar  2.918107  9.525379  2.146428
Ar  0.598026  13.669861  2.952900
Ar  0.691253  11.751978  6.172481
Ar  3.810029  12.486632  4.194341
Ar  3.938219  11.520074  8.854137
Ar  1.985173  14.999025  6.432517
Ar  16.752358  12.198047  9.701106
Ar  1.962943  15.975610  10.180067
Ar  1.880881  12.455618  12.500958
Ar  0.684719  13.075308  16.646732
Ar  5.812877  16.275571  0.726415
Ar  8.399306  2.076750  16.621816
Ar  7.204511  0.855552  3.716553
Ar  4.987196  2.827287  1.705807
Ar  5.775423  15.214118  4.983175
Ar  6.377232  2.987338  6.155390
Ar  8.156017  17.117625  8.060565
Ar  3.335746  3.746302  10.460582
Ar  4.731483  0.629413  11.877121
Ar  7.363328  3.084733  9.340679
Ar  8.910987  1.410116  12.427745
Ar  5.059211  1.366667  15.303043
Ar  6.059879  5.467853  16.251812
Ar  7.678358  8.264539  14.845899
Ar  8.551759  4.033554  3.347068
Ar  6.701839  9.708428  1.219638
Ar  5.530845  6.438896  2.557414
Ar  7.896758  6.576081  6.998260
Ar  6.063892  6.469596  10.643924
Ar  6.693981  9.613583  8.365745
Ar  6.256275  3.745145  13.088223
Ar  10.169730  10.766766  9.373071
Ar  9.689288  5.678604  13.880776
Ar  6.337450  10.528252  11.703314
Ar  4.131380  11.070586  14.500530
Ar  7.491915  15.454376  13.855435
Ar  9.964898  10.589525  1.643643
Ar  7.843118  12.329569  16.080161
Ar  6.931070  10.764673  4.954807
Ar  8.394965  13.323739  3.140752
Ar  7.344339  13.230271  7.551077
Ar  5.135008  15.525893  8.643972
Ar  5.130933  13.720054  11.634277
Ar  8.614831  13.730220  10.738137
Ar  9.496244  11.338980  13.521741
Ar  3.431770  15.210573  15.259769
Ar  11.572165  1.043495  0.964502
Ar  12.474594  5.748612  15.792232
Ar  14.651294  1.281179  2.454172
Ar  12.198077  4.726537  2.261908
Ar  10.367942  0.926818  5.158261
Ar  14.921831  3.618763  5.266735
Ar  14.000850  0.488100  6.502547
Ar  11.299612  4.570106  5.729305
Ar  11.295188  2.283823  9.024023
Ar  14.272462  1.878904  11.060401
Ar  14.293589  0.101103  14.199172
Ar  12.127225  2.458303  13.835919
Ar  9.090326  6.782674  0.691058
Ar  11.652970  9.175138  15.736039
Ar  16.537699  6.889955  1.240972
Ar  13.126857  8.419363  1.830004
Ar  10.232484  7.765281  4.041191
Ar  14.373586  7.371025  4.967620
Ar  14.582007  5.265804  8.683858
Ar  11.020987  7.944065  7.343255
Ar  10.279580  5.476148  10.140284
Ar  13.268260  9.188946  11.937179
Ar  13.708511  5.331282  12.133487
Ar  9.323374  8.225163  11.756108
Ar  12.706975  12.942164  14.887397
Ar  14.156105  15.492500  0.059900
Ar  13.873255  12.338295  3.074507
Ar  11.430959  15.217173  3.375918
Ar  10.970686  12.376276  5.463416
Ar  14.946083  13.728970  6.608266
Ar  14.276764  10.371278  7.128070
Ar  11.280446  15.399034  7.946906
Ar  12.967119  12.982595  10.762096
Ar  10.898622  15.836786  12.133991
Ar  15.733257  14.015200  13.951521
Ar  10.641467  15.678934  15.617199
108
Frame 82 box=17.158430
Ar  0.190880  16.941638  0.883446
Ar  2.074354  2.984208  16.162093
Ar  3.191738  16.322301  2.939428
Ar  0.594101  3.750120  2.236687
Ar  0.441135  0.518251  5.256189
Ar  3.396710  3.008728  4.616185
Ar  3.237904  1.195094  8.036148
Ar  1.194108  4.775169  7.630451
Ar  15.576146  15.615954  9.981233
Ar  16.566214  1.956402  9.155281
Ar  0.973184  17.116560  13.260045
Ar  15.129778  3.621719  16.605114
Ar  16.824291  6.777731  15.203409
Ar  3.557527  5.518632  13.915094
Ar  2.666416  6.375062  0.391009
Ar  16.699521  10.588667  2.716774
Ar  0.788289  7.908934  5.356425
Ar  3.822101  8.965379  6.375619
Ar  4.501579  5.527321  6.985254
Ar  0.193417  8.981656  8.919731
Ar  16.845262  6.843583  11.532415
Ar  2.711293  8.955915  11.977071
Ar  16.863261  3.423655  13.055345
Ar  16.047561  10.410003  12.575927
Ar  14.730402  10.911913  16.645085
Ar  4.499349  12.543804  0.974223
Ar  3.462918  9.431820  2.311388
Ar  0.312252  14.128614  3.548169
Ar  0.399557  11.461070  6.171796
Ar  3.666574  12.294691  4.240439
Ar  3.879483  11.775418  8.943669
Ar  1.721645  14.525851  7.123899
Ar  16.360304  12.290210  9.532439
Ar  2.127182  15.532083  10.450181
Ar  2.016714  12.361854  12.459017
Ar  0.684719  13.075308  16.646732
Ar  5.929830  15.885213  0.347995
Ar  8.571946  2.088610  16.611921
Ar  8.104863  0.669725  2.852841
Ar  5.275681  2.652912  1.672236
Ar  5.775423  15.214118  4.983175
Ar  6.349883  2.700497  5.960863
Ar  8.112084  0.014820  7.951674
Ar  3.265259  4.659221  10.573098
Ar  4.314161  1.079033  11.822223
Ar  6.432910  3.017326  9.382345
Ar  8.561441  1.298013  11.573014
Ar  5.059211  1.366667  15.303043
Ar  6.325326  5.656092  15.881122
Ar  7.271514  8.782530  15.122763
Ar  8.511629  4.478032  3.396740
Ar  6.701839  9.708428  1.219638
Ar  5.158194  6.321444  3.703262
Ar  8.057575  6.382616  7.096275
Ar  6.681949  6.665125  11.051592
Ar  6.651858  9.424501  8.612390
Ar  6.328169  3.708910  12.889637
Ar  10.269935  11.399370  8.893451
Ar  9.581468  5.426358  13.651306
Ar  6.257896  10.314677  11.983730
Ar  4.636009  11.113885  14.884101
Ar  6.958733  15.984927  13.771927
Ar  10.341487  10.702544  1.755095
Ar  7.400749  12.519290  16.067415
Ar  7.557559  10.280388  5.050333
Ar  8.394965  13.323739  3.140752
Ar  7.697166  13.425664  7.426955
Ar  5.135008  15.525893  8.643972
Ar  5.130933  13.720054  11.634277
Ar  8.779232  14.408752  11.001552
Ar  9.404963  11.636423  13.365815
Ar  3.660641  14.586295  14.681623
Ar  11.479109  1.067827  0.773845
Ar  12.300622  5.900842  16.019948
Ar  14.651294  1.281179  2.454172
Ar  12.850029  4.572065  2.340797
Ar  10.545910  0.799952  5.562043
Ar  14.921831  3.618763  5.266735
Ar  14.140359  0.487869  6.968606
Ar  11.363412  4.777201  6.063712
Ar  11.628609  1.484776  9.229464
Ar  14.083855  1.934699  11.443059
Ar  14.708996  0.595772  14.711931
Ar  11.700543  2.492638  14.110237
Ar  9.655626  7.178288  0.880385
Ar  11.308232  9.053946  14.914260
Ar  15.925238  6.597324  2.402329
Ar  13.126857  8.419363  1.830004
Ar  10.232484  7.765281  4.041191
Ar  14.582185  8.066629  5.361410
Ar  14.338619  5.580394  9.112460
Ar  11.714834  7.752100  7.602775
Ar  10.136578  4.991347  10.118871
Ar  13.179627  9.190072  10.567632
Ar  13.556809  5.523332  12.459158
Ar  9.802170  8.280847  10.934363
Ar  12.565857  13.031073  14.359069
Ar  13.897167  15.370410  0.136413
Ar  13.783107  12.310323  2.763710
Ar  11.652843  15.446582  3.370920
Ar  11.514177  12.141427  5.315279
Ar  15.242691  14.104443  6.632188
Ar  14.151599  10.870013  7.548594
Ar  11.357459  15.035445  7.783255
Ar  13.088009  13.243125  10.612518
Ar  11.232667  16.042545  12.690452
Ar  16.180179  14.097491  13.726276
Ar  9.691906  15.575343  16.190136
108
Frame 83 box=17.158430
Ar  0.352043  16.905756  0.385253
Ar  1.555345  2.902460  16.320199
Ar  3.161631  15.488733  2.837843
Ar  0.168368  3.446912  2.600377
Ar  0.231843  0.641286  5.341066
Ar  3.359897  2.353507  4.284677
Ar  3.375738  1.695754  8.050053
Ar  1.179020  4.735250  7.598186
Ar  15.415756  15.584413  10.522596
Ar  16.770759  2.146641  9.316344
Ar  0.852417  0.096734  13.472776
Ar  15.129778  3.621719  16.605114
Ar  16.101894  6.740401  15.285484
Ar  3.677982  6.013709  14.250393
Ar  2.608473  6.227810  0.525833
Ar  16.216318  10.313334  3.054514
Ar  1.100245  7.992995  5.254192
Ar  4.261957  9.101665  6.563565
Ar  4.501579  5.527321  6.985254
Ar  0.456574  8.771450  8.901508
Ar  17.096701  7.073688  11.778908
Ar  3.035997  8.442874  11.552569
Ar  0.307004  3.768089  13.115003
Ar  15.832289  10.343413  12.796276
Ar  15.505972  10.720200  16.317460
Ar  4.499349  12.543804  0.974223
Ar  3.172349  9.158703  2.616669
Ar  16.876454  14.436818  3.250634
Ar  0.399557  11.461070  6.171796
Ar  3.649564  12.284956  4.252949
Ar  3.280766  11.866734  8.371712
Ar  2.413452  14.936504  6.196371
Ar  16.788319  12.180554  9.493259
Ar  1.918143  15.368382  9.731894
Ar  1.776609  11.893913  12.564637
Ar  1.045390  13.315054  16.908931
Ar  6.132092  15.844052  0.371362
Ar  8.543106  2.247820  16.431541
Ar  7.950381  0.814136  2.651488
Ar  5.379793  3.301697  1.649044
Ar  6.008351  15.498496  4.722277
Ar  6.530828  2.191248  5.963267
Ar  8.104162  16.975036  7.919925
Ar  3.471126  5.044508  10.331449
Ar  4.881059  0.647242  11.429012
Ar  6.627022  3.467023  9.313606
Ar  8.831769  1.543150  12.142169
Ar  5.059211  1.366667  15.303043
Ar  6.808139  5.082531  16.326911
Ar  7.445920  9.043285  14.853338
Ar  8.260691  4.562656  3.788047
Ar  6.929570  9.531388  1.333868
Ar  5.233358  6.346972  3.629048
Ar  7.962878  6.469906  7.060660
Ar  6.680667  6.778629  11.133790
Ar  6.983228  9.855364  8.832061
Ar  6.328169  3.708910  12.889637
Ar  10.431393  11.638197  9.124141
Ar  9.717317  5.301224  13.584946
Ar  5.944176  10.691940  12.042512
Ar  3.801375  10.364410  15.226828
Ar  7.600964  15.666755  14.017612
Ar  10.341355  11.019864  1.051784
Ar  6.991649  12.490371  15.866621
Ar  7.557559  10.280388  5.050333
Ar  7.972472  13.465368  2.498549
Ar  7.684010  13.242043  7.431833
Ar  5.192880  15.504572  8.473010
Ar  4.999874  13.858414  12.005206
Ar  8.487178  14.606171  10.711785
Ar  9.303137  11.860118  13.190900
Ar  3.495252  14.996061  14.759690
Ar  11.347932  0.684811  0.917838
Ar  12.225216  5.978538  16.009933
Ar  14.417402  1.017299  2.255980
Ar  11.757240  4.063721  2.413734
Ar  10.545910  0.799952  5.562043
Ar  15.298258  3.935271  5.371678
Ar  13.796262  0.126855  7.095942
Ar  11.440751  4.075245  6.114745
Ar  11.446805  1.979788  9.262673
Ar  13.760799  1.978383  11.659020
Ar  14.729038  0.305288  14.639144
Ar  11.680274  2.646963  14.529811
Ar  9.490431  6.976592  0.905907
Ar  12.626937  8.854961  14.224445
Ar  16.432163  7.046464  1.892735
Ar  13.107214  8.136699  1.775972
Ar  10.463847  7.673447  4.428204
Ar  14.200871  7.867223  5.154780
Ar  14.767638  5.089736  9.009300
Ar  11.268678  7.782764  7.795819
Ar  10.766348  5.417676  9.974604
Ar  13.393940  8.941384  10.552780
Ar  13.556809  5.523332  12.459158
Ar  9.814945  8.770766  11.478994
Ar  12.256632  13.004654  14.532872
Ar  14.381432  14.976235  0.353910
Ar  13.347359  12.243442  2.381279
Ar  12.221755  15.392521  3.779740
Ar  11.545630  11.827957  5.508479
Ar  14.797866  13.903391  7.118976
Ar  14.028362  10.678226  7.515430
Ar  11.339794  14.851494  7.971883
Ar  12.978654  13.292527  11.138424
Ar  11.381607  16.165222  12.495516
Ar  16.044960  13.981216  14.154363
Ar  10.199716  15.036091  16.607882
108
Frame 84 box=17.158430
Ar  0.405384  17.037824  0.767851
Ar  1.551483  2.565094  15.877581
Ar  3.285168  15.766657  2.635958
Ar  0.313228  3.639785  2.793494
Ar  0.152720  0.933801  6.050130
Ar  2.901605  2.069933  4.177133
Ar  3.600954  1.300381  7.777487
Ar  0.896851  4.850472  7.797713
Ar  15.294627  16.086748  10.599253
Ar  0.256998  2.002726  9.862746
Ar  0.939322  17.100922  13.477153
Ar  15.137026  3.303655  17.030848
Ar  15.928172  6.410470  15.832772
Ar  4.229154  6.799098  14.177319
Ar  2.688287  5.807927  0.982284
Ar  15.893973  10.733913  3.073275
Ar  1.014248  7.415180  5.553509
Ar  4.404532  8.710070  6.645124
Ar  4.513213  5.327919  6.535206
Ar  0.111549  8.650659  9.308267
Ar  17.048726  5.957617  11.531321
Ar  3.117498  8.505742  11.384703
Ar  1.827585  3.515482  12.678272
Ar  15.832289  10.343413  12.796276
Ar  15.685550  10.573248  16.556604
Ar  4.552127  12.979455  1.067529
Ar  2.974770  8.985307  2.954871
Ar  17.110571  13.874957  3.030857
Ar  0.494167  11.198350  6.388396
Ar  4.391713  12.423061  4.664911
Ar  3.554878  11.968426  8.284647
Ar  1.932184  14.921844  6.106875
Ar  16.748654  12.771491  9.530239
Ar  2.145995  15.801112  10.168166
Ar  2.177484  11.551216  12.248888
Ar  1.045390  13.315054  16.908931
Ar  6.530903  15.858186  0.311815
Ar  8.761850  2.159387  16.367756
Ar  7.950381  0.814136  2.651488
Ar  5.167972  3.156627  1.158669
Ar  6.008351  15.498496  4.722277
Ar  6.503159  2.220411  5.743692
Ar  8.636638  16.943707  7.677676
Ar  3.467668  4.939520  10.272593
Ar  5.200888  0.298693  11.356349
Ar  6.293878  3.315154  9.387752
Ar  8.405873  1.133700  11.782931
Ar  5.032727  1.291129  15.257053
Ar  6.971948  5.362547  16.337568
Ar  7.931384  8.667192  14.749315
Ar  8.166757  4.321904  3.236453
Ar  6.802998  9.605466  1.683563
Ar  5.549333  6.688061  3.631856
Ar  8.035420  6.518836  7.130103
Ar  6.477673  7.137470  11.235503
Ar  7.015881  9.344467  8.515328
Ar  6.576440  4.283442  13.087880
Ar  10.691271  11.722863  9.477293
Ar  9.845561  5.610042  13.372351
Ar  6.195867  10.759425  12.108246
Ar  3.686836  9.653541  16.738481
Ar  7.600964  15.666755  14.017612
Ar  10.067843  10.467127  0.783928
Ar  6.726366  11.869064  15.557964
Ar  7.983463  10.657168  4.848857
Ar  8.088361  13.349012  2.058250
Ar  8.446031  13.439239  7.332439
Ar  5.192880  15.504572  8.473010
Ar  4.999874  13.858414  12.005206
Ar  8.698401  14.679259  10.511725
Ar  9.380857  12.130528  12.938401
Ar  3.258650  14.810809  14.763137
Ar  11.448285  0.699818  1.118036
Ar  12.225216  5.978538  16.009933
Ar  14.504443  0.893203  3.109417
Ar  11.798335  4.471418  2.203705
Ar  10.721272  0.964649  5.121696
Ar  14.911989  3.840519  5.461091
Ar  13.609478  0.493677  6.560124
Ar  11.211682  4.095361  6.149153
Ar  10.895641  1.937515  9.154157
Ar  13.760799  1.978383  11.659020
Ar  15.098336  0.391267  14.817312
Ar  12.294564  2.648972  14.808341
Ar  9.301998  6.956821  1.063336
Ar  12.626937  8.854961  14.224445
Ar  16.345507  7.144029  2.604961
Ar  12.912940  8.354653  1.486195
Ar  10.167315  8.171536  4.137354
Ar  14.153328  7.882621  5.021294
Ar  14.518773  5.647298  9.149848
Ar  11.607277  7.336243  7.283428
Ar  10.260494  5.225687  9.883125
Ar  13.453572  8.817247  10.877519
Ar  13.653693  5.462446  12.379895
Ar  9.692068  9.096779  11.421503
Ar  12.496680  12.333180  15.222226
Ar  14.630552  15.195589  0.233487
Ar  12.967919  12.238083  2.202338
Ar  12.225480  15.295600  3.798347
Ar  11.155855  11.944089  5.312555
Ar  14.938689  13.944132  6.748510
Ar  14.215931  10.139747  7.579391
Ar  11.652182  15.221187  8.448030
Ar  13.159947  13.351280  11.025393
Ar  11.185071  15.842350  13.246206
Ar  15.840214  13.688416  13.854163
Ar  10.197180  14.406341  16.983238
108
Frame 85 box=17.158430
Ar  16.893952  0.271963  0.930456
Ar  1.735955  2.478090  16.246627
Ar  3.307178  15.778816  2.556326
Ar  0.486265  3.912181  3.173165
Ar  0.036550  1.368728  5.832016
Ar  3.202714  2.204466  4.291779
Ar  3.434301  1.588563  7.750545
Ar  0.602862  4.777102  7.389561
Ar  15.405999  16.176596  10.912951
Ar  16.646065  1.805181  9.655000
Ar  0.987793  17.050051  13.623199
Ar  15.325641  3.481361  0.122469
Ar  15.734406  6.700945  15.646688
Ar  3.938651  6.670734  14.108393
Ar  3.096944  6.059884  1.146072
Ar  15.703376  10.227470  3.756719
Ar  0.673131  7.807332  5.795286
Ar  4.694448  9.109273  5.916785
Ar  4.033421  5.360202  6.896425
Ar  0.197550  8.662800  9.023398
Ar  16.950256  5.907835  11.779450
Ar  3.117498  8.505742  11.384703
Ar  1.937011  3.214382  12.725234
Ar  15.476806  10.336555  13.415749
Ar  15.275741  10.475757  17.039639
Ar  4.322938  13.068190  0.757486
Ar  2.414913  9.081306  3.106470
Ar  16.531205  14.703459  3.368318
Ar  0.452607  11.628633  6.485257
Ar  3.563948  12.184041  4.464631
Ar  3.463559  10.884574  8.725334
Ar  1.717956  15.232940  5.842310
Ar  15.766568  11.989839  9.972452
Ar  1.648324  15.578241  9.707564
Ar  1.403787  11.286082  12.506626
Ar  0.416112  13.136179  16.617113
Ar  6.415325  15.602158  17.106089
Ar  8.902999  2.852481  17.141303
Ar  7.598710  0.307345  2.575765
Ar  5.040558  3.419855  1.691040
Ar  6.008351  15.498496  4.722277
Ar  6.503159  2.220411  5.743692
Ar  8.679890  17.110966  7.279898
Ar  3.255466  4.958383  10.164309
Ar  5.008156  0.105940  10.966877
Ar  6.450633  3.260266  9.050260
Ar  9.234375  0.997650  11.959973
Ar  5.240780  1.608691  15.898512
Ar  6.398031  5.972315  16.264897
Ar  8.148503  8.758263  14.413623
Ar  8.599970  3.854120  3.503547
Ar  6.736689  9.150366  0.899864
Ar  5.549333  6.688061  3.631856
Ar  8.081892  5.897014  6.882186
Ar  6.477673  7.137470  11.235503
Ar  7.121598  8.956861  8.287475
Ar  6.469529  3.721896  12.636310
Ar  10.841922  11.655381  9.266441
Ar  9.394902  5.202455  13.803260
Ar  6.620312  10.711702  11.810216
Ar  3.594734  9.744185  16.634983
Ar  6.998073  16.071779  13.654328
Ar  10.036102  10.475484  16.880933
Ar  6.157559  12.610195  15.020211
Ar  7.893000  10.751201  5.194251
Ar  8.405976  12.831655  2.152179
Ar  8.279812  13.668890  6.932182
Ar  4.885403  14.477046  7.978628
Ar  4.847920  13.890624  11.336601
Ar  8.817936  14.804598  10.570119
Ar  9.513003  12.679546  13.729624
Ar  3.505814  14.781279  15.197043
Ar  11.633333  0.762463  1.243751
Ar  12.225216  5.978538  16.009933
Ar  14.338410  1.389527  3.112643
Ar  11.966234  4.397147  2.121596
Ar  10.771248  1.248230  4.425096
Ar  14.911989  3.840519  5.461091
Ar  13.609478  0.493677  6.560124
Ar  11.418551  4.292695  5.723538
Ar  11.192700  1.988655  8.674769
Ar  13.419581  1.753322  11.644629
Ar  15.145100  0.708608  14.910857
Ar  12.294564  2.648972  14.808341
Ar  9.301998  6.956821  1.063336
Ar  12.518411  9.098797  14.461077
Ar  16.542105  7.201821  1.940159
Ar  12.841993  8.304533  1.212875
Ar  10.131507  7.817121  4.455714
Ar  14.036801  7.183804  5.198326
Ar  13.942354  4.922747  9.278373
Ar  11.357706  8.104221  7.684204
Ar  10.260494  5.225687  9.883125
Ar  13.396467  8.537388  10.868764
Ar  13.612145  5.351305  12.619457
Ar  10.024773  8.680734  11.497465
Ar  12.496680  12.333180  15.222226
Ar  14.270520  15.154603  0.064900
Ar  13.051895  12.428369  1.852494
Ar  11.995654  15.341710  3.541700
Ar  11.335909  12.350523  5.570739
Ar  15.155783  14.514612  6.756768
Ar  13.743157  10.548997  7.264578
Ar  11.921244  15.067155  8.268195
Ar  12.952029  12.959153  11.882560
Ar  11.771844  15.737218  13.681839
Ar  15.993852  14.184623  13.860332
Ar  10.760965  14.768365  17.010337
108
Frame 86 box=17.158430
Ar  16.986137  16.834922  0.862156
Ar  1.655881  2.854179  16.180810
Ar  3.069601  16.300015  2.478511
Ar  0.620516  3.885090  3.351308
Ar  0.216763  0.876229  5.741627
Ar  3.283520  1.772375  4.416319
Ar  3.234613  2.000998  7.981421
Ar  0.446295  4.941682  7.426391
Ar  15.168819  16.111547  11.379338
Ar  0.136988  1.372491  9.343688
Ar  1.323118  16.763415  13.051037
Ar  14.657883  3.626459  0.330881
Ar  15.603572  7.104744  15.513229
Ar  3.953120  6.445090  14.245693
Ar  2.740539  5.917196  0.729275
Ar  15.621242  10.783632  3.847085
Ar  0.742248  8.116264  6.086564
Ar  4.616164  8.750091  5.441026
Ar  4.217376  5.820865  7.647186
Ar  17.000994  8.655535  9.477190
Ar  16.797543  5.905591  11.999591
Ar  2.952833  8.594064  11.395688
Ar  1.211573  2.974009  12.942727
Ar  15.006630  10.423955  13.358272
Ar  15.312901  10.015073  0.327035
Ar  4.334297  13.038360  1.570212
Ar  1.704772  9.692924  2.904241
Ar  0.064436  14.119164  3.367705
Ar  0.232677  11.664680  6.626887
Ar  3.726533  12.006603  4.769604
Ar  3.139369  10.970459  8.604001
Ar  2.329584  15.015266  5.760188
Ar  16.143786  12.258731  9.995293
Ar  1.618494  14.648650  9.457931
Ar  1.403787  11.286082  12.506626
Ar  0.892381  12.876440  16.897525
Ar  6.415325  15.602158  17.106089
Ar  8.318333  2.304940  16.664353
Ar  7.994284  0.197475  2.859897
Ar  5.247332  3.212624  2.105666
Ar  5.631708  16.128121  5.051637
Ar  6.536381  2.096596  5.818331
Ar  8.679890  17.110966  7.279898
Ar  2.941565  4.940192  10.486866
Ar  5.153136  0.087164  10.649938
Ar  6.920117  2.998050  9.267937
Ar  9.102829  1.532915  12.330969
Ar  5.147149  1.912549  15.420788
Ar  6.450387  5.315801  16.374127
Ar  6.807399  8.448966  14.386037
Ar  8.599970  3.854120  3.503547
Ar  6.448677  9.264447  1.075899
Ar  5.759946  6.339515  3.469158
Ar  7.845180  5.769989  6.958065
Ar  5.976859  7.212363  10.787839
Ar  6.943173  9.407431  8.377976
Ar  6.206864  3.737384  12.479387
Ar  10.467448  11.731322  9.564764
Ar  9.394902  5.202455  13.803260
Ar  6.709405  11.083510  11.725918
Ar  3.733751  9.423317  16.561324
Ar  8.041375  15.911265  13.953913
Ar  9.440798  10.272836  16.661359
Ar  6.283441  12.481120  15.206362
Ar  7.644801  10.604827  4.794233
Ar  8.999967  13.473734  2.909117
Ar  8.196857  13.389741  6.729535
Ar  5.266919  14.305733  7.919653
Ar  4.847920  13.890624  11.336601
Ar  8.977305  15.056297  10.367812
Ar  9.427797  12.686867  13.148202
Ar  3.505814  14.781279  15.197043
Ar  11.362665  1.153866  0.919521
Ar  11.933061  5.904157  16.022468
Ar  14.360833  0.825274  3.296914
Ar  12.539144  4.915919  2.914763
Ar  10.771248  1.248230  4.425096
Ar  14.911989  3.840519  5.461091
Ar  14.093161  0.818976  6.968824
Ar  11.021760  4.477830  5.879238
Ar  11.299427  1.858405  8.533683
Ar  12.973726  1.630139  11.577944
Ar  15.287756  0.672392  14.528413
Ar  11.723528  2.372417  14.723103
Ar  9.290686  6.532586  1.132736
Ar  11.827594  8.558130  14.003577
Ar  16.147996  6.861310  2.120104
Ar  12.586785  8.320754  1.424833
Ar  9.796057  7.669681  4.299422
Ar  14.018948  7.335782  5.707344
Ar  14.046866  4.196054  8.831764
Ar  10.859984  8.432743  7.743969
Ar  10.260575  5.287304  9.614098
Ar  13.562149  9.136830  10.504687
Ar  13.105233  5.188905  12.712205
Ar  9.674977  8.602804  11.339436
Ar  12.496680  12.333180  15.222226
Ar  14.137936  15.304642  16.855085
Ar  12.549095  12.115084  2.113768
Ar  12.152337  15.033393  4.453896
Ar  10.964644  11.372892  5.639760
Ar  15.191117  14.521207  6.684586
Ar  14.171168  10.573272  6.935911
Ar  12.285369  15.471580  8.632794
Ar  12.952029  12.959153  11.882560
Ar  11.542872  15.978848  13.709739
Ar  15.942081  13.962647  14.081314
Ar  10.644349  14.967631  16.960469
108
Frame 87 box=17.158430
Ar  16.963090  0.441415  1.140867
Ar  1.259231  3.208089  16.549517
Ar  3.015402  16.706551  1.485149
Ar  0.228113  3.570467  3.215170
Ar  0.111536  0.461732  5.415564
Ar  3.597172  0.855357  4.485439
Ar  3.245425  1.928205  7.836556
Ar  0.594856  4.753657  7.335347
Ar  14.808462  15.497697  11.007947
Ar  16.788171  1.974903  9.640009
Ar  0.742181  16.722736  12.491638
Ar  14.163665  3.655256  0.462306
Ar  15.622904  6.885813  15.330871
Ar  3.461799  6.591667  14.346095
Ar  2.973979  6.308780  0.941224
Ar  14.870674  10.483999  3.941084
Ar  0.742248  8.116264  6.086564
Ar  4.202957  8.691251  5.319025
Ar  4.066860  5.604636  7.325581
Ar  17.093101  8.811930  9.328586
Ar  0.515118  6.554321  12.462267
Ar  3.034574  8.295301  11.221520
Ar  1.219625  3.327312  13.088373
Ar  15.158102  10.578861  13.506995
Ar  15.211893  9.496935  0.056588
Ar  4.235740  12.966138  1.095145
Ar  1.320395  9.905547  2.450697
Ar  0.388932  13.746452  3.053524
Ar  0.891837  11.819629  6.596658
Ar  3.700126  11.820811  4.576593
Ar  3.692277  10.807668  8.816608
Ar  2.522831  14.970757  5.940652
Ar  16.522421  12.019760  10.434953
Ar  1.197911  14.891711  9.265506
Ar  1.995932  11.182772  13.380227
Ar  1.104446  12.676246  16.697384
Ar  6.739614  15.392092  0.243872
Ar  7.839081  2.182266  16.088509
Ar  7.974871  0.461175  3.001118
Ar  5.399876  2.676265  1.877100
Ar  5.723831  15.393652  3.870343
Ar  6.536381  2.096596  5.818331
Ar  8.501769  16.940707  7.378333
Ar  3.309771  4.302589  10.394887
Ar  4.738169  16.859037  11.727876
Ar  6.846786  2.489632  9.047541
Ar  8.917255  1.635872  11.825632
Ar  4.304371  1.831942  15.303979
Ar  6.249367  5.608755  16.674653
Ar  7.081535  8.572315  14.904943
Ar  8.600995  3.875890  3.794073
Ar  6.782917  9.192884  1.729297
Ar  6.182848  6.224800  3.715328
Ar  7.773361  5.467860  6.866266
Ar  6.012254  6.814382  11.201168
Ar  6.990779  8.869992  8.180569
Ar  5.928610  3.544252  12.802053
Ar  10.846362  11.249494  9.391701
Ar  9.139815  5.837110  13.793304
Ar  6.521849  10.867969  11.203844
Ar  3.556172  9.568760  16.536412
Ar  7.591147  16.360899  14.045781
Ar  9.786071  10.436970  16.702042
Ar  6.546330  12.185349  15.509702
Ar  7.644801  10.604827  4.794233
Ar  8.730072  13.596926  3.061131
Ar  8.640339  13.598921  6.749310
Ar  5.270566  14.741728  8.368929
Ar  4.462947  13.326477  12.079214
Ar  8.754124  14.904206  10.420801
Ar  9.334052  11.955869  13.621845
Ar  3.337353  15.243537  15.159184
Ar  11.325220  1.390302  1.353972
Ar  11.855353  5.576427  16.083623
Ar  14.360833  0.825274  3.296914
Ar  11.930200  4.804279  3.021644
Ar  10.803857  1.459929  4.941826
Ar  14.713833  3.888463  5.288742
Ar  14.093161  0.818976  6.968824
Ar  11.123731  4.896621  6.336063
Ar  11.267767  1.996844  8.596495
Ar  13.034316  1.856495  11.559684
Ar  15.490064  0.759749  14.914203
Ar  11.827510  2.306216  14.620501
Ar  9.216519  6.470476  1.131882
Ar  12.653852  8.823592  14.386593
Ar  16.701335  6.888916  2.325280
Ar  12.472399  8.319804  2.201272
Ar  9.796057  7.669681  4.299422
Ar  14.092143  7.538207  5.680543
Ar  14.131536  5.115533  8.505678
Ar  11.311087  8.221331  7.478702
Ar  10.622237  5.476144  9.908133
Ar  13.475239  8.337476  10.695139
Ar  13.920889  5.293848  12.710386
Ar  9.674977  8.602804  11.339436
Ar  12.496680  12.333180  15.222226
Ar  14.208432  15.435358  0.106410
Ar  12.730551  12.157910  1.692262
Ar  12.040948  15.203905  4.157184
Ar  11.579321  11.926210  5.362206
Ar  15.267676  14.455838  6.904134
Ar  13.968394  11.054158  7.397713
Ar  11.735651  15.739778  8.291456
Ar  12.735102  12.636833  11.790159
Ar  11.339544  15.770431  12.556969
Ar  15.878241  14.301569  14.393640
Ar  10.313180  15.159823  17.138344
108
Frame 88 box=17.158430
Ar  16.963090  0.441415  1.140867
Ar  1.449426  3.657213  16.790695
Ar  3.164112  17.019974  0.886318
Ar  0.739477  3.517660  2.947964
Ar  0.029974  0.624894  5.574046
Ar  3.450109  1.114437  4.502130
Ar  3.050342  1.954321  7.897243
Ar  0.503212  4.698158  7.320717
Ar  14.941231  16.010149  10.945377
Ar  16.951674  2.249783  9.898129
Ar  0.758082  17.028295  12.440532
Ar  14.624852  2.969708  0.331434
Ar  16.376914  6.301412  15.734967
Ar  3.861441  6.532930  14.239444
Ar  2.835219  6.868154  0.587389
Ar  15.362869  10.908105  4.129580
Ar  0.666009  8.576110  5.773729
Ar  4.166592  8.327541  4.989352
Ar  4.399323  5.356671  7.022265
Ar  0.022678  9.372698  9.020894
Ar  0.100195  6.560824  12.315689
Ar  2.874897  8.611016  11.232999
Ar  0.940503  3.420898  12.996770
Ar  16.127096  10.136882  13.375902
Ar  15.231804  9.546855  0.379554
Ar  4.117985  13.114846  1.436817
Ar  2.189166  10.014789  2.199450
Ar  0.520277  14.574648  3.081543
Ar  0.668398  12.221505  7.034158
Ar  3.700126  11.820811  4.576593
Ar  3.696670  11.010767  8.147609
Ar  2.522831  14.970757  5.940652
Ar  16.695054  12.719856  10.576783
Ar  1.534217  15.612583  9.283574
Ar  2.065341  11.309877  13.332822
Ar  0.636929  11.737439  16.566288
Ar  6.348147  16.103989  0.559625
Ar  8.248747  2.501333  16.187353
Ar  7.974871  0.461175  3.001118
Ar  5.249427  2.497531  1.526036
Ar  5.584642  14.950339  4.182249
Ar  6.378086  2.518749  5.960158
Ar  8.675019  16.784696  7.494721
Ar  2.831360  4.398471  10.287325
Ar  4.582347  0.195845  11.739699
Ar  6.670268  2.757070  9.295473
Ar  9.003668  2.121882  12.006593
Ar  4.036147  1.494278  15.324084
Ar  6.249367  5.608755  16.674653
Ar  7.011216  8.441018  14.786946
Ar  8.600995  3.875890  3.794073
Ar  7.069632  9.728519  1.389463
Ar  5.552919  6.029441  2.865424
Ar  7.977049  5.629176  7.372952
Ar  6.012254  6.814382  11.201168
Ar  6.968951  9.008253  8.193064
Ar  5.700620  3.418200  12.826873
Ar  10.846362  11.249494  9.391701
Ar  8.969288  5.853765  13.258838
Ar  6.148454  10.593334  11.336466
Ar  4.050161  9.854632  16.092735
Ar  7.731322  16.338501  14.013073
Ar  9.982038  9.942502  16.204741
Ar  6.773500  12.463395  15.795135
Ar  7.272078  11.047000  4.792356
Ar  8.845081  13.851391  2.658373
Ar  8.315813  12.932976  7.671071
Ar  5.441144  14.761448  8.190966
Ar  3.926319  13.494362  11.733168
Ar  8.539680  15.256072  10.789893
Ar  9.614733  12.596720  12.585084
Ar  3.048574  14.855668  14.612535
Ar  11.332377  1.817752  1.041141
Ar  11.518795  5.673758  16.040232
Ar  14.410497  0.636593  3.360278
Ar  11.928923  4.668328  2.749076
Ar  11.256795  1.552367  4.918779
Ar  14.642397  3.737692  5.336461
Ar  14.191916  0.739868  7.317405
Ar  11.240091  4.702888  6.353483
Ar  10.989659  2.236588  8.634937
Ar  13.395680  2.343730  11.073040
Ar  15.490064  0.759749  14.914203
Ar  12.003675  2.103135  14.248841
Ar  9.019103  6.401233  1.204565
Ar  12.905228  8.533397  14.179570
Ar  16.729464  7.050263  2.246068
Ar  12.486168  8.385911  1.835974
Ar  9.796057  7.669681  4.299422
Ar  14.237804  7.202854  5.580037
Ar  14.147270  4.721612  8.547349
Ar  11.311087  8.221331  7.478702
Ar  10.150352  5.295822  9.854023
Ar  13.510803  8.297169  10.716037
Ar  13.884917  5.538447  12.908284
Ar  9.725096  9.091815  12.051852
Ar  12.852949  12.032514  15.592610
Ar  13.742252  15.510496  0.325234
Ar  12.768106  12.136855  1.840037
Ar  12.906904  14.636208  4.399247
Ar  11.020390  11.534893  4.958986
Ar  14.982094  14.275388  7.307237
Ar  14.169166  11.107368  7.593080
Ar  11.862915  15.514847  8.931547
Ar  13.087563  12.383663  11.860837
Ar  11.566648  15.951490  12.598408
Ar  16.499912  14.552770  14.191124
Ar  10.032396  15.756827  17.097190
108
Frame 89 box=17.158430
Ar  16.802612  0.353942  1.053900
Ar  1.559270  3.261653  16.902436
Ar  3.130465  0.117841  1.128235
Ar  0.736792  3.147213  3.063056
Ar  0.197413  0.903482  5.743135
Ar  3.599162  1.135858  4.543319
Ar  3.343288  1.991243  7.916213
Ar  0.593317  4.731622  6.860648
Ar  15.044953  16.565273  10.663387
Ar  16.759339  2.658978  10.202957
Ar  1.625393  17.049064  13.442186
Ar  14.375532  3.096099  0.120295
Ar  16.033274  6.126722  16.002450
Ar  3.172670  6.471221  14.336110
Ar  2.683883  7.107052  1.046475
Ar  15.108316  10.984443  4.409538
Ar  0.219300  8.312146  5.366551
Ar  4.409328  8.406275  5.046965
Ar  4.491795  5.563300  7.166976
Ar  16.901858  8.621337  8.980653
Ar  0.052434  6.602580  12.509877
Ar  2.634031  8.918516  11.070597
Ar  1.632540  3.494005  13.373512
Ar  15.903081  10.418519  13.703322
Ar  15.114188  10.161257  0.796020
Ar  4.055344  13.406766  1.358683
Ar  2.251824  10.319335  2.034144
Ar  16.327895  14.499221  3.129712
Ar  0.863505  12.263411  7.046865
Ar  3.555388  11.668627  4.802119
Ar  3.868954  10.759418  8.152473
Ar  2.522831  14.970757  5.940652
Ar  17.136819  12.020767  11.034092
Ar  1.481227  16.036225  9.438845
Ar  2.330084  11.260002  13.652320
Ar  0.636929  11.737439  16.566288
Ar  6.251366  16.198221  0.340919
Ar  8.069271  2.080894  16.351722
Ar  8.377730  0.655997  3.175829
Ar  5.842971  2.604297  1.922839
Ar  5.493017  15.369202  3.828132
Ar  6.378086  2.518749  5.960158
Ar  8.185397  16.869737  7.089770
Ar  2.560475  5.087906  10.015858
Ar  5.085574  0.362752  11.312045
Ar  6.879150  2.914939  9.343995
Ar  9.165894  1.476052  12.012229
Ar  4.311101  1.172307  15.176948
Ar  5.643065  5.212946  16.658220
Ar  6.830907  8.733302  14.497635
Ar  8.802822  4.242563  3.765367
Ar  7.261069  10.615305  0.981668
Ar  5.873310  5.939147  2.895368
Ar  7.991057  5.570575  7.232098
Ar  5.986542  6.818126  10.690397
Ar  7.535251  9.243744  8.345389
Ar  5.344546  3.973527  12.870328
Ar  10.658492  11.468152  9.818039
Ar  8.564182  5.466888  13.000039
Ar  5.960693  10.928789  11.812525
Ar  4.363664  10.284137  16.304261
Ar  7.748451  16.034707  14.067023
Ar  9.982038  9.942502  16.204741
Ar  6.757912  12.972762  15.981082
Ar  7.272078  11.047000  4.792356
Ar  9.258349  14.424521  2.792013
Ar  8.786423  13.322216  7.601841
Ar  5.066164  14.723976  8.214398
Ar  3.712688  13.751170  12.037420
Ar  7.701442  15.175806  10.643587
Ar  9.535091  12.880426  12.783054
Ar  2.603743  14.318258  15.412295
Ar  11.338749  1.610807  1.300954
Ar  11.109783  5.585981  15.294137
Ar  14.410497  0.636593  3.360278
Ar  12.541378  4.758660  2.595244
Ar  11.234801  0.995115  5.259510
Ar  14.642397  3.737692  5.336461
Ar  13.945839  0.699230  7.408078
Ar  11.417041  5.385205  6.311293
Ar  10.520973  2.207801  8.343731
Ar  13.365525  2.378652  11.388866
Ar  15.237950  0.300990  14.290341
Ar  11.823265  2.494065  14.550230
Ar  9.405873  6.877027  0.871577
Ar  12.914033  8.435169  15.005247
Ar  16.658742  6.834339  2.247224
Ar  12.539638  8.169240  2.989841
Ar  9.508343  7.672588  4.473675
Ar  14.291897  6.890377  5.540382
Ar  14.065902  5.410319  8.848731
Ar  11.395580  8.578251  8.237686
Ar  10.535005  5.363653  10.088504
Ar  13.770738  8.450922  11.268571
Ar  13.598880  5.626383  13.033089
Ar  10.048308  9.036484  12.596096
Ar  12.907882  12.023125  15.682507
Ar  13.484369  16.268790  17.072716
Ar  13.028190  13.020427  1.923802
Ar  12.735315  14.748889  4.772925
Ar  11.303868  10.874505  4.996803
Ar  15.342834  14.643497  7.088365
Ar  13.654598  11.709246  7.977370
Ar  11.644029  15.464090  8.123541
Ar  13.421109  12.084287  12.057937
Ar  11.645483  15.462510  12.272350
Ar  15.978302  13.853257  14.173879
Ar  9.980953  15.879613  16.838136
108
Frame 90 box=17.158430
Ar  16.720737  0.079093  0.652406
Ar  2.366098  4.031933  16.980801
Ar  2.805323  0.216877  1.109483
Ar  1.113434  3.730928  3.327873
Ar  17.063443  1.052973  5.490512
Ar  3.585253  1.294617  4.347184
Ar  2.257928  2.016015  7.985802
Ar  0.480764  5.138445  6.574340
Ar  15.440536  15.871811  11.314292
Ar  16.282184  2.450333  10.949623
Ar  1.817608  16.984083  12.730644
Ar  14.510470  3.083108  16.610479
Ar  16.327715  6.866638  16.113140
Ar  3.521477  6.813974  13.918504
Ar  3.196605  7.207794  0.589455
Ar  15.038047  10.825862  4.831864
Ar  1.061858  8.543601  6.110132
Ar  4.675303  8.529175  5.083584
Ar  4.491795  5.563300  7.166976
Ar  16.409759  8.801744  9.287927
Ar  0.399096  6.865797  12.691780
Ar  2.497892  8.562314  10.740150
Ar  1.416164  3.558266  13.717000
Ar  16.149283  10.590221  14.011305
Ar  15.363752  9.733964  0.833453
Ar  3.238028  13.771100  1.927205
Ar  2.263274  10.264217  2.175335
Ar  16.855951  14.445731  2.962502
Ar  1.302943  12.290102  7.546756
Ar  3.541964  12.241892  5.111108
Ar  4.444449  11.227835  8.417140
Ar  2.009517  15.268564  5.757165
Ar  17.018869  12.321706  10.925200
Ar  0.972246  16.449636  9.182903
Ar  2.330084  11.260002  13.652320
Ar  0.606028  11.948779  16.975714
Ar  6.154273  16.378347  0.446622
Ar  8.137223  2.305951  16.381730
Ar  8.234728  0.157441  3.070622
Ar  5.842971  2.604297  1.922839
Ar  5.696807  15.143943  4.227128
Ar  6.285899  2.850721  5.814317
Ar  8.192883  16.490017  6.520885
Ar  2.065298  5.092824  10.005039
Ar  5.314700  0.185192  11.124472
Ar  6.926648  3.554075  9.158532
Ar  9.325858  1.384768  11.456797
Ar  4.315211  0.985817  15.115689
Ar  5.798471  5.195888  16.431391
Ar  6.912275  8.259643  14.414974
Ar  8.802822  4.242563  3.765367
Ar  7.243412  10.090302  1.790736
Ar  5.649989  5.979022  3.200781
Ar  7.882055  6.246741  7.119769
Ar  5.668653  6.682218  10.292462
Ar  7.711588  9.455619  8.229586
Ar  5.260957  3.946127  12.421860
Ar  9.844397  12.186563  10.368933
Ar  8.564182  5.466888  13.000039
Ar  5.962166  10.203336  11.195015
Ar  4.350202  10.215392  16.329107
Ar  7.559226  16.827576  13.890524
Ar  9.713541  10.298159  15.962862
Ar  5.750131  13.728085  15.122650
Ar  6.839155  11.109657  4.998307
Ar  9.113822  13.757431  3.494722
Ar  8.765234  13.020965  7.133747
Ar  5.300430  14.735601  7.936354
Ar  4.582645  13.533216  11.308735
Ar  7.786934  15.379210  10.082889
Ar  8.843670  13.164222  13.713499
Ar  2.264392  14.717013  15.763614
Ar  11.144448  1.427788  1.394598
Ar  11.252213  5.253572  15.796219
Ar  14.069805  0.249323  3.295166
Ar  12.214631  4.743426  2.366397
Ar  11.211667  1.273051  5.154036
Ar  14.506390  3.719017  4.911619
Ar  14.074883  0.744127  7.486672
Ar  11.101964  4.899403  6.160531
Ar  10.437195  2.136288  8.279257
Ar  12.745547  2.250112  11.534477
Ar  15.740065  0.783733  14.364731
Ar  11.533002  1.875485  14.997022
Ar  8.443520  7.253688  0.624611
Ar  12.955448  8.749723  15.294191
Ar  16.498302  6.807929  3.105515
Ar  12.803025  8.148049  2.876419
Ar  9.467797  7.827907  4.393111
Ar  14.035529  7.462345  5.939842
Ar  14.027385  5.179631  9.115411
Ar  11.553948  8.967202  7.757248
Ar  10.500427  5.399752  9.801214
Ar  13.878247  8.253236  11.355023
Ar  13.902791  5.383086  13.418519
Ar  10.512386  9.078634  12.318421
Ar  12.968005  12.361356  15.532965
Ar  13.403959  15.700474  16.717169
Ar  13.511999  12.973725  1.928391
Ar  12.341456  14.848324  4.978517
Ar  11.334584  10.922648  4.790322
Ar  15.598286  14.622387  6.979990
Ar  13.491179  12.062723  7.980414
Ar  10.905139  15.326225  8.781390
Ar  13.487433  12.723334  11.732408
Ar  12.083903  16.217327  12.614385
Ar  16.215952  14.188144  14.523712
Ar  9.906139  15.686989  16.542224
108
Frame 91 box=17.158430
Ar  16.798092  0.362051  0.691993
Ar  2.373209  4.111511  17.023429
Ar  2.998246  0.534054  1.511722
Ar  1.314530  3.939947  3.407162
Ar  17.019134  1.100274  5.018023
Ar  4.148006  0.534637  4.846251
Ar  2.455408  2.314367  7.808449
Ar  0.480764  5.138445  6.574340
Ar  15.255837  15.881670  10.803001
Ar  16.727980  2.508589  10.655784
Ar  1.518702  16.895624  12.657287
Ar  14.443275  3.059885  16.417082
Ar  16.719770  6.407145  16.296007
Ar  3.030063  6.823128  14.463261
Ar  3.573752  7.304222  0.772615
Ar  15.575906  11.264501  4.528537
Ar  0.796034  8.811057  6.057805
Ar  4.572334  8.466860  4.919877
Ar  4.161086  5.294581  6.517187
Ar  16.291270  9.099565  9.092979
Ar  0.120708  7.094687  12.557250
Ar  2.427598  8.548037  10.334465
Ar  1.327039  3.259276  13.583536
Ar  15.831859  10.176076  14.284589
Ar  15.445479  9.979223  0.912102
Ar  3.404114  14.024937  2.025190
Ar  2.656979  10.232770  2.485104
Ar  16.637914  14.449456  2.976488
Ar  1.109364  12.411653  7.705579
Ar  3.527420  12.179882  4.988565
Ar  4.470825  11.339606  8.283751
Ar  2.009517  15.268564  5.757165
Ar  0.098362  12.414471  11.352483
Ar  1.544045  16.264451  9.214330
Ar  2.560916  11.161187  13.325964
Ar  0.889739  11.724286  16.579579
Ar  6.318616  16.345074  0.481668
Ar  8.105602  1.916745  16.067501
Ar  8.437912  0.234782  3.107944
Ar  5.486026  2.834355  1.584620
Ar  6.498292  14.154884  3.973318
Ar  6.575544  2.983303  6.060017
Ar  8.192883  16.490017  6.520885
Ar  1.729265  5.233329  9.905098
Ar  4.489785  0.719609  10.817994
Ar  7.306621  3.486236  9.462720
Ar  9.179611  2.209657  12.333049
Ar  4.368104  0.947100  14.504266
Ar  5.893231  4.845430  15.739988
Ar  7.089906  8.402625  14.711435
Ar  8.864755  3.697870  3.324094
Ar  7.446531  10.391056  1.878029
Ar  6.129027  6.013109  2.960408
Ar  7.782095  6.132302  7.130670
Ar  5.347848  6.633970  10.261259
Ar  7.618821  9.224923  8.524898
Ar  5.155726  4.008214  12.494809
Ar  9.434585  11.788474  10.038331
Ar  8.613554  5.467834  12.997910
Ar  5.427051  10.372639  11.532665
Ar  4.643327  10.235760  16.310867
Ar  7.637008  16.576463  13.701950
Ar  9.713541  10.298159  15.962862
Ar  5.908287  13.687669  14.941780
Ar  7.316364  10.687101  5.149658
Ar  10.157715  13.992635  3.194780
Ar  8.947438  13.233684  6.997488
Ar  5.251907  14.706097  7.902294
Ar  4.490456  13.858296  11.612730
Ar  7.966797  15.717795  9.965125
Ar  9.219949  13.044098  13.797454
Ar  2.918598  15.047531  15.825084
Ar  11.144448  1.427788  1.394598
Ar  11.571687  5.735638  15.892121
Ar  14.069805  0.249323  3.295166
Ar  12.642021  4.514723  2.187550
Ar  11.138132  1.549339  4.847142
Ar  14.265265  3.412346  5.314346
Ar  13.914093  0.668538  7.876391
Ar  10.769261  4.894017  6.087881
Ar  10.482878  1.990783  8.596857
Ar  12.595217  2.454145  11.558282
Ar  15.493115  0.356585  14.182088
Ar  11.533002  1.875485  14.997022
Ar  8.526329  7.096926  0.717164
Ar  13.099177  8.828688  15.610811
Ar  17.101757  6.936981  2.574467
Ar  12.597089  7.939670  1.996975
Ar  9.467797  7.827907  4.393111
Ar  14.019668  7.813582  5.290225
Ar  14.012333  5.363427  9.175683
Ar  11.790509  8.887401  7.806593
Ar  10.451518  5.541644  9.620595
Ar  13.823318  8.572940  11.658355
Ar  14.363179  5.448252  13.494798
Ar  10.591333  8.872267  12.437605
Ar  12.786182  12.221605  15.827608
Ar  13.150709  15.695296  16.377780
Ar  13.405187  13.456840  1.920429
Ar  12.241921  14.079521  5.836148
Ar  11.550191  10.738610  4.476282
Ar  15.707851  14.681089  6.729141
Ar  13.944145  11.538062  8.252516
Ar  11.390837  15.340461  8.896080
Ar  13.139111  12.405444  11.500874
Ar  12.087809  15.629330  13.023207
Ar  15.656634  14.188305  14.099127
Ar  9.698276  15.278981  17.072373
108
Frame 92 box=17.158430
Ar  16.098697  0.020207  0.515431
Ar  2.776025  3.730054  16.965075
Ar  2.589788  0.372303  1.668841
Ar  2.129562  3.463132  3.676452
Ar  16.963015  0.812772  5.791586
Ar  4.792522  0.301168  4.757282
Ar  2.821734  2.157545  7.064868
Ar  17.094490  5.247105  6.597916
Ar  15.207840  16.026105  10.991426
Ar  16.821934  2.456632  10.256445
Ar  1.254231  16.874772  12.492044
Ar  14.669661  3.072385  16.704817
Ar  16.835344  6.487488  16.503735
Ar  3.014260  6.988204  14.755678
Ar  3.576012  7.046484  1.205000
Ar  15.144615  11.656514  4.682372
Ar  0.927382  8.662552  6.026059
Ar  4.572334  8.466860  4.919877
Ar  4.413631  5.613009  6.911021
Ar  16.029768  8.875898  9.020290
Ar  0.239371  6.894712  12.570017
Ar  2.427598  8.548037  10.334465
Ar  2.275677  3.972365  13.348626
Ar  15.844386  10.207733  14.525993
Ar  15.511500  9.876909  1.341537
Ar  3.370731  14.325703  1.647201
Ar  2.379090  9.948816  2.829047
Ar  16.769384  14.386206  3.123211
Ar  1.060126  12.277371  7.592571
Ar  3.650292  12.064897  5.242277
Ar  4.363289  11.063655  8.364740
Ar  2.009517  15.268564  5.757165
Ar  16.906250  12.893451  11.175595
Ar  1.703168  16.436188  9.006555
Ar  2.275536  10.375301  13.723326
Ar  0.715557  12.073355  0.057551
Ar  5.993509  16.029517  0.760601
Ar  8.068351  1.927999  15.930412
Ar  8.103470  0.242488  2.942336
Ar  5.381889  2.590446  1.938617
Ar  6.180109  14.470491  3.989679
Ar  6.682746  3.093619  6.165276
Ar  8.399621  16.527208  6.383949
Ar  2.232720  5.134594  10.050795
Ar  4.489785  0.719609  10.817994
Ar  7.467126  3.355061  9.446519
Ar  9.179611  2.209657  12.333049
Ar  4.249352  1.122746  14.869482
Ar  5.964108  4.804695  16.127132
Ar  6.521348  8.471939  14.445560
Ar  9.029900  3.921909  2.985990
Ar  7.077407  10.808587  1.631102
Ar  6.216071  5.720215  2.927578
Ar  7.748801  6.334685  6.819654
Ar  5.669536  6.347816  10.504869
Ar  7.392241  9.590056  8.732603
Ar  5.763864  3.603355  12.558990
Ar  10.528488  11.273340  9.831719
Ar  8.663856  5.698791  13.374756
Ar  5.360123  10.462003  11.782005
Ar  4.158864  9.990208  16.590636
Ar  7.369620  16.187077  13.937607
Ar  9.544912  10.405946  15.984008
Ar  6.514885  12.949079  15.531825
Ar  7.195794  10.543929  5.288274
Ar  9.859816  13.794114  3.253088
Ar  8.947438  13.233684  6.997488
Ar  5.368018  14.542956  7.756311
Ar  4.041195  13.682660  11.474130
Ar  8.098828  15.201841  10.146469
Ar  9.795635  13.107667  13.375496
Ar  2.327359  14.716172  15.018678
Ar  10.985700  1.077283  1.002121
Ar  11.212249  5.454260  16.419694
Ar  14.152618  0.243777  3.411951
Ar  12.612790  4.226264  2.356362
Ar  10.956720  1.325512  4.823322
Ar  14.369036  3.408836  4.993110
Ar  13.768536  1.088441  7.521339
Ar  11.232181  4.889419  6.104011
Ar  10.482878  1.990783  8.596857
Ar  13.416996  2.062838  10.941403
Ar  15.241134  0.953128  13.657910
Ar  11.938187  1.877298  14.846845
Ar  8.526329  7.096926  0.717164
Ar  12.862544  8.795286  15.278040
Ar  16.470054  6.440283  2.823478
Ar  12.391594  7.844231  1.933969
Ar  9.466393  7.579205  4.128344
Ar  14.401927  7.915286  5.650926
Ar  14.339804  5.414563  9.505092
Ar  11.348103  8.366888  8.373353
Ar  11.124787  4.683704  10.667686
Ar  13.911188  8.180952  11.727022
Ar  14.362771  5.415389  13.917974
Ar  9.711420  8.973166  12.611267
Ar  12.786182  12.221605  15.827608
Ar  13.242480  16.089061  16.539345
Ar  13.514455  14.176365  1.954559
Ar  12.241921  14.079521  5.836148
Ar  11.658751  10.320859  4.630079
Ar  15.684186  14.940857  6.580060
Ar  13.722024  11.486331  8.351009
Ar  11.854516  15.250130  9.322941
Ar  13.730411  12.159204  12.170519
Ar  12.354345  15.477472  12.665407
Ar  15.445576  14.178369  14.626547
Ar  9.464135  15.252604  16.815745
108
Frame 93 box=17.158430
Ar  16.583663  17.060673  0.238706
Ar  2.194010  3.622177  16.763100
Ar  2.776110  0.746396  1.338914
Ar  2.541110  3.601317  3.941625
Ar  17.087710  0.931541  5.987966
Ar  4.713876  16.947346  4.377462
Ar  2.705893  2.543812  7.153360
Ar  17.094490  5.247105  6.597916
Ar  15.271688  16.249176  10.397385
Ar  16.679011  2.127418  10.233426
Ar  1.075118  16.433770  12.466360
Ar  15.201051  3.488197  16.859237
Ar  16.932077  6.920045  16.288954
Ar  3.080573  6.553166  14.703412
Ar  3.165414  6.559678  1.003512
Ar  15.514545  11.170338  4.421582
Ar  0.684634  8.773179  5.724485
Ar  4.459064  8.629107  5.067062
Ar  3.924274  5.769787  7.086471
Ar  15.865747  8.511917  8.948212
Ar  16.971037  7.734465  12.514044
Ar  2.427598  8.548037  10.334465
Ar  1.859953  3.517187  12.942697
Ar  15.666662  10.621779  14.325299
Ar  15.540248  9.798595  1.165615
Ar  2.728035  14.116123  1.935282
Ar  2.047114  9.921877  2.456914
Ar  16.769384  14.386206  3.123211
Ar  0.975503  12.138879  7.224028
Ar  3.710122  12.352035  4.868147
Ar  4.350211  10.896577  7.999311
Ar  2.012464  15.287721  5.932643
Ar  0.200231  12.787868  11.111811
Ar  1.520535  16.480353  9.076117
Ar  1.854398  10.535384  13.257543
Ar  0.666617  12.181498  0.324614
Ar  5.698824  16.063994  0.184084
Ar  8.021353  1.853837  16.672764
Ar  8.103470  0.242488  2.942336
Ar  5.554161  2.669634  2.065044
Ar  6.651226  14.249112  3.610943
Ar  6.513375  3.179777  5.744803
Ar  8.392764  16.878279  7.110703
Ar  1.906438  5.166486  9.860351
Ar  4.259358  1.441853  10.791872
Ar  7.359987  2.745917  9.208715
Ar  9.334638  1.920706  12.380536
Ar  4.071924  1.033948  14.750105
Ar  5.589868  4.670373  16.216177
Ar  6.562427  8.536114  14.259669
Ar  9.029900  3.921909  2.985990
Ar  7.921938  10.577754  2.083548
Ar  6.200299  5.874370  3.451151
Ar  7.818007  6.399245  7.120410
Ar  5.669536  6.347816  10.504869
Ar  7.528821  9.244135  9.464616
Ar  5.763864  3.603355  12.558990
Ar  10.586660  11.420449  9.348707
Ar  8.347357  5.816141  13.620010
Ar  5.168212  10.498240  11.667388
Ar  4.278125  10.392811  16.011861
Ar  6.933244  16.363014  13.741322
Ar  9.335955  10.151087  16.008515
Ar  6.986581  12.809795  16.161114
Ar  7.474600  10.167790  5.777005
Ar  10.215886  13.288235  2.787589
Ar  8.209167  13.404914  6.735480
Ar  5.139993  14.493397  7.504758
Ar  4.223210  14.036625  10.875405
Ar  8.409966  13.805182  10.439439
Ar  9.754506  13.004140  13.629121
Ar  2.006431  14.495486  15.380759
Ar  11.105488  0.846986  1.301271
Ar  11.035690  5.184845  16.253194
Ar  14.177514  0.345526  3.039191
Ar  12.619752  4.487426  2.461130
Ar  11.121989  0.520492  5.123563
Ar  14.848543  3.402646  4.897704
Ar  14.070485  0.710414  7.988263
Ar  11.660064  4.252386  5.840622
Ar  10.578476  1.854013  8.882265
Ar  13.122754  1.819624  11.144697
Ar  15.278173  0.370537  13.683128
Ar  11.787057  1.983874  14.609062
Ar  8.083140  7.182740  0.111499
Ar  12.603541  9.224438  14.670497
Ar  17.095854  6.731899  2.880136
Ar  11.844460  8.854976  1.630776
Ar  9.468473  7.672918  3.808952
Ar  14.352398  7.311210  5.079928
Ar  13.953300  4.877325  8.704422
Ar  11.128041  7.612379  7.882690
Ar  10.682901  5.172050  10.429273
Ar  12.983273  7.742351  11.327667
Ar  14.111512  5.508936  14.315834
Ar  9.534204  9.555404  12.776306
Ar  13.031830  12.174903  16.343564
Ar  13.360302  16.464101  16.578764
Ar  13.405146  13.986309  2.455750
Ar  12.155598  13.999512  5.807333
Ar  11.740742  10.411529  5.015308
Ar  15.630100  14.841380  6.747866
Ar  13.851192  11.550813  7.615417
Ar  12.157848  14.526913  9.178693
Ar  13.270608  12.448923  12.117737
Ar  12.400244  15.515045  13.371265
Ar  15.670535  14.177187  14.310080
Ar  10.169959  15.032884  16.348372
108
Frame 94 box=17.158430
Ar  0.344240  0.164532  16.664735
Ar  1.836502  3.786908  16.917941
Ar  1.940239  1.077744  2.441798
Ar  2.778887  4.557311  3.587901
Ar  0.184214  1.253679  5.862808
Ar  5.175811  0.163678  4.869203
Ar  3.354725  2.759331  6.929555
Ar  0.167795  5.634349  6.317434
Ar  15.041493  16.149650  10.558216
Ar  16.373756  2.175891  9.846280
Ar  1.289977  16.674074  12.711751
Ar  15.061082  2.924939  17.118822
Ar  16.707595  6.967584  16.474395
Ar  2.538704  6.656989  14.459309
Ar  3.591336  7.144809  0.566100
Ar  15.760821  11.283219  4.651512
Ar  0.739802  8.991595  6.028536
Ar  4.413010  8.985825  4.884161
Ar  4.014602  6.246568  7.171634
Ar  15.998821  8.926684  9.151104
Ar  16.729566  7.668737  12.655743
Ar  1.972064  8.964973  10.162717
Ar  0.997373  3.484849  13.281152
Ar  15.738209  10.328644  14.824416
Ar  15.693109  9.880515  1.196411
Ar  3.351344  14.533169  2.396351
Ar  1.992982  10.406880  2.936772
Ar  17.005214  14.131161  3.529064
Ar  1.392850  12.443343  7.299743
Ar  4.215424  12.318753  5.095646
Ar  4.197906  10.236216  8.112644
Ar  2.232050  15.557376  5.880607
Ar  16.743269  12.961859  10.739087
Ar  1.116804  16.093232  9.170220
Ar  2.020462  10.727851  13.670259
Ar  0.581499  12.648485  0.576221
Ar  5.698824  16.063994  0.184084
Ar  8.029668  1.847463  16.100816
Ar  8.446990  0.331097  2.825393
Ar  5.380182  2.545287  1.926569
Ar  6.651226  14.249112  3.610943
Ar  6.622446  3.367415  5.603596
Ar  8.392764  16.878279  7.110703
Ar  1.906438  5.166486  9.860351
Ar  4.183711  1.291410  10.291301
Ar  7.174866  3.045673  9.239251
Ar  9.038379  2.465931  12.543246
Ar  3.867591  1.210920  15.377186
Ar  5.908868  5.031647  15.739605
Ar  5.857098  8.400124  13.733217
Ar  8.914502  3.977012  2.548285
Ar  7.006889  10.514648  1.845651
Ar  6.064260  6.144631  2.747570
Ar  7.909937  6.589314  7.429317
Ar  5.410875  6.229220  10.265117
Ar  7.528821  9.244135  9.464616
Ar  5.390604  3.417970  12.739438
Ar  10.899555  11.446761  9.315849
Ar  8.807721  5.972805  13.979164
Ar  4.977468  11.149230  11.499080
Ar  4.284495  10.694081  16.359930
Ar  6.830389  16.208440  13.756193
Ar  9.720736  9.980852  16.293825
Ar  7.247101  12.977935  15.852556
Ar  7.711262  10.199663  6.053025
Ar  9.884337  13.311654  2.804986
Ar  8.517186  13.662679  6.670137
Ar  5.244485  14.590887  8.184453
Ar  3.963828  14.586765  11.818576
Ar  7.757276  13.612006  10.713224
Ar  9.754506  13.004140  13.629121
Ar  2.160217  14.233241  15.253948
Ar  11.360041  1.390310  1.104275
Ar  10.946325  5.586170  16.534593
Ar  14.405190  0.194057  3.294972
Ar  13.056026  5.018490  1.941147
Ar  11.251564  0.616293  4.865459
Ar  14.395465  3.552902  4.885703
Ar  13.664623  0.629280  7.556324
Ar  11.287791  4.759143  6.521500
Ar  10.472971  1.515538  9.160214
Ar  13.122754  1.819624  11.144697
Ar  15.297784  0.847855  13.713753
Ar  11.896389  1.958030  14.393605
Ar  8.208005  7.287966  0.570899
Ar  12.793499  8.637734  14.870612
Ar  17.095854  6.731899  2.880136
Ar  11.556374  8.386331  1.465563
Ar  9.845002  7.154472  4.333631
Ar  13.455658  7.389583  4.693092
Ar  14.326014  4.511521  8.202832
Ar  11.294315  8.007633  7.739847
Ar  11.190922  5.118243  10.411278
Ar  12.982099  8.005194  11.656027
Ar  14.708622  4.598676  13.275293
Ar  9.475227  9.606965  12.670970
Ar  12.607231  12.287007  15.720042
Ar  13.360302  16.464101  16.578764
Ar  13.642006  13.713490  2.716677
Ar  12.012762  14.229850  6.035670
Ar  11.917352  10.543626  4.896741
Ar  15.544351  14.961894  6.950217
Ar  14.095366  11.776571  8.043348
Ar  11.345099  15.410459  9.905091
Ar  12.703169  11.876523  12.341086
Ar  12.691357  15.722156  13.235741
Ar  15.718095  13.901479  13.843520
Ar  10.169959  15.032884  16.348372
108
Frame 95 box=17.158430
Ar  0.153034  0.235998  16.413298
Ar  2.151147  3.848561  17.006411
Ar  1.231605  1.509938  2.343838
Ar  2.781062  4.435315  3.577779
Ar  0.511134  1.153873  5.977536
Ar  4.801267  0.273988  4.565495
Ar  3.853332  2.468594  7.504070
Ar  0.649190  5.244710  6.556341
Ar  15.405419  15.697730  10.579806
Ar  16.518444  1.972613  10.088126
Ar  1.325705  16.460927  12.477801
Ar  14.614225  2.813466  16.755641
Ar  16.437653  6.852713  16.305903
Ar  2.423826  6.850989  13.687272
Ar  3.373688  7.132277  0.730818
Ar  14.702754  10.559832  5.263419
Ar  1.431847  8.897281  6.165549
Ar  4.918691  8.968268  4.459467
Ar  3.734148  6.443635  7.082281
Ar  15.774770  8.635818  8.941577
Ar  16.332971  7.504227  12.492500
Ar  2.057097  8.056043  9.522310
Ar  2.049025  3.326032  13.397230
Ar  15.556585  10.328514  14.635668
Ar  15.041480  9.894274  1.479228
Ar  3.213960  15.074039  2.365914
Ar  1.128658  10.667840  2.872983
Ar  16.644371  14.428109  3.503302
Ar  0.855858  12.320318  6.890731
Ar  4.242225  12.168707  4.712462
Ar  4.197906  10.236216  8.112644
Ar  2.287365  15.290498  5.853483
Ar  0.088405  12.517810  10.462509
Ar  1.631741  16.150927  9.291890
Ar  1.853459  11.025515  13.385462
Ar  16.578080  13.339221  0.277634
Ar  5.801358  16.155829  0.842977
Ar  8.471738  0.834084  16.286791
Ar  8.142654  0.375843  3.443910
Ar  5.665287  2.428910  1.749446
Ar  6.524998  14.353661  3.708186
Ar  6.824753  3.474582  5.347793
Ar  7.775517  0.070161  7.444225
Ar  1.998876  4.356346  9.862794
Ar  3.775701  1.251009  10.619158
Ar  7.078522  3.194254  9.461686
Ar  9.006434  1.795214  12.500130
Ar  3.489561  0.938026  15.407860
Ar  5.786018  5.107649  15.742801
Ar  6.043237  8.639947  13.586993
Ar  9.098782  4.096926  2.288025
Ar  6.969353  11.131826  1.805251
Ar  5.802623  5.814839  2.948347
Ar  8.149353  6.335375  7.793204
Ar  5.109585  6.583581  10.661986
Ar  7.296839  9.387691  9.978294
Ar  5.593078  3.458381  12.634572
Ar  10.773256  11.451657  9.559335
Ar  8.857459  6.082009  13.204800
Ar  4.715430  11.098156  11.471367
Ar  4.363096  10.153046  16.293843
Ar  6.770226  16.209483  13.205764
Ar  9.460151  10.247320  15.721271
Ar  7.215812  14.062751  15.913277
Ar  7.908555  9.696323  5.899560
Ar  10.001768  14.208999  3.055136
Ar  8.559582  13.574888  6.637806
Ar  5.606461  14.900799  8.206310
Ar  3.797610  14.305568  11.455957
Ar  7.667591  13.398429  10.614702
Ar  9.468088  13.343664  13.506108
Ar  3.490854  13.495695  15.309442
Ar  11.504225  1.828586  0.729292
Ar  10.930128  5.263935  16.518494
Ar  14.710578  0.233533  3.052274
Ar  13.496945  5.392209  1.863195
Ar  11.260702  0.695967  4.984604
Ar  13.996691  3.118857  5.156808
Ar  13.664623  0.629280  7.556324
Ar  11.347377  5.222845  6.615183
Ar  10.472971  1.515538  9.160214
Ar  13.013351  2.219224  10.967677
Ar  15.548053  0.933383  13.448176
Ar  11.986737  2.466741  14.281932
Ar  7.974543  7.657929  0.735159
Ar  12.967785  8.062290  14.811673
Ar  0.106297  6.456968  2.585488
Ar  11.163797  8.846337  1.275704
Ar  9.758934  7.124171  4.397444
Ar  13.478123  7.478581  4.485868
Ar  14.692869  4.758828  8.260256
Ar  11.028938  8.528954  7.852053
Ar  10.566683  4.875877  10.068497
Ar  12.581420  8.091278  11.514646
Ar  14.583988  4.806841  13.697591
Ar  9.572511  9.587144  12.606963
Ar  12.705817  12.311033  15.999193
Ar  13.861171  16.204541  16.731757
Ar  13.318225  13.747828  1.741777
Ar  12.154923  14.633202  5.807219
Ar  10.878724  11.202464  4.989180
Ar  15.469893  14.951336  6.727099
Ar  14.065617  11.880674  8.653842
Ar  10.550591  15.103594  9.313425
Ar  13.209985  11.631623  12.042031
Ar  12.597841  16.147601  12.966843
Ar  15.819098  14.254734  13.751497
Ar  10.738450  15.016736  16.305861
108
Frame 96 box=17.158430
Ar  17.074083  0.096564  16.515657
Ar  2.019214  3.391909  0.013068
Ar  1.261188  0.876352  2.236628
Ar  2.837214  4.012259  3.968655
Ar  0.230502  1.290373  5.816988
Ar  5.093459  0.542109  4.473676
Ar  3.544636  2.556188  6.962356
Ar  0.649190  5.244710  6.556341
Ar  15.211051  15.480461  10.785275
Ar  16.916772  1.598090  10.241381
Ar  1.272252  16.537291  12.804699
Ar  14.730151  2.891013  16.641358
Ar  15.957950  6.661971  16.313871
Ar  2.617168  6.667939  14.229808
Ar  3.420987  6.925840  0.493596
Ar  14.341376  10.957133  4.855389
Ar  0.937769  8.775831  5.865670
Ar  4.004979  8.285502  4.169103
Ar  4.214264  6.115454  6.928420
Ar  15.848023  8.384808  8.919688
Ar  16.746645  7.511579  12.381460
Ar  2.339073  7.933560  9.400901
Ar  1.641883  3.004295  13.541821
Ar  15.787362  10.048142  14.894325
Ar  14.950571  9.798163  1.313598
Ar  2.858020  14.664997  2.203589
Ar  1.147444  10.754256  2.439992
Ar  16.809582  14.718507  3.700181
Ar  1.129299  12.145478  6.867344
Ar  4.050405  11.991244  4.766320
Ar  4.397524  10.618200  7.917323
Ar  2.540336  15.460084  5.946092
Ar  0.155893  12.474945  10.661898
Ar  1.631741  16.150927  9.291890
Ar  1.951447  10.803957  13.678951
Ar  17.075275  13.324910  0.161120
Ar  5.801358  16.155829  0.842977
Ar  8.140277  1.026642  16.190278
Ar  8.491708  0.382576  2.941382
Ar  5.801546  2.523282  1.217989
Ar  6.524998  14.353661  3.708186
Ar  7.112201  3.610427  5.762274
Ar  7.877424  17.153050  6.549420
Ar  1.998876  4.356346  9.862794
Ar  4.191852  1.144725  10.164627
Ar  6.898580  3.202658  9.225162
Ar  9.012272  1.314787  12.185275
Ar  3.801928  0.876704  15.394843
Ar  6.142372  4.817967  15.811540
Ar  6.041055  8.569132  13.790894
Ar  9.708780  4.100340  2.918648
Ar  7.157635  10.909115  2.735566
Ar  5.777825  5.467395  3.069171
Ar  8.149353  6.335375  7.793204
Ar  4.924365  6.527483  10.931306
Ar  7.680950  9.431473  9.513741
Ar  6.011217  3.073767  12.880463
Ar  10.790445  11.691227  9.446842
Ar  8.440850  6.028709  13.192659
Ar  4.715430  11.098156  11.471367
Ar  3.831743  10.592144  17.022123
Ar  6.802329  15.495333  13.107489
Ar  9.614807  10.626885  16.557803
Ar  7.530613  13.488089  16.376165
Ar  7.678589  9.529373  5.983352
Ar  10.165949  14.130026  2.877635
Ar  8.559582  13.574888  6.637806
Ar  5.215361  14.509945  7.793214
Ar  3.859106  14.431698  11.273908
Ar  7.643117  13.670791  10.297946
Ar  9.468088  13.343664  13.506108
Ar  3.013142  13.839294  15.956254
Ar  11.393208  1.543406  0.829812
Ar  11.037264  5.322069  16.567237
Ar  14.710578  0.233533  3.052274
Ar  13.923449  5.571220  2.062265
Ar  11.501274  1.221262  4.469626
Ar  14.774291  3.268895  4.985524
Ar  13.480372  0.378774  7.738326
Ar  11.347377  5.222845  6.615183
Ar  10.472971  1.515538  9.160214
Ar  13.250058  2.140182  11.232909
Ar  15.252739  0.939212  13.581969
Ar  12.114066  2.537088  14.417680
Ar  7.974543  7.657929  0.735159
Ar  12.580311  8.401180  15.058779
Ar  0.702387  6.737989  2.921155
Ar  11.252929  8.734213  1.822161
Ar  9.758934  7.124171  4.397444
Ar  14.508689  7.202453  5.254388
Ar  14.564113  5.189319  8.214963
Ar  11.510162  8.833592  7.525436
Ar  11.128904  4.907456  10.678163
Ar  12.667816  8.049999  11.412676
Ar  14.462357  4.777892  13.682578
Ar  9.572511  9.587144  12.606963
Ar  12.872711  11.853791  16.215335
Ar  13.861171  16.204541  16.731757
Ar  13.719415  13.518333  2.032351
Ar  12.037205  14.102094  5.948481
Ar  10.669337  10.953923  4.661881
Ar  15.666855  14.830889  7.073849
Ar  14.271420  11.709650  8.781281
Ar  10.550591  15.103594  9.313425
Ar  13.492322  11.506679  12.459191
Ar  12.439963  16.189137  12.965653
Ar  16.208587  13.808099  13.901787
Ar  10.738450  15.016736  16.305861
108
Frame 97 box=17.158430
Ar  0.084529  16.870779  16.338125
Ar  1.453493  3.721597  0.349304
Ar  1.457863  0.476216  2.447330
Ar  2.837214  4.012259  3.968655
Ar  16.677026  0.752742  5.263255
Ar  4.646871  0.430161  3.693908
Ar  3.398425  1.768550  7.016425
Ar  0.743025  4.817409  6.722270
Ar  15.211051  15.480461  10.785275
Ar  16.916772  1.598090  10.241381
Ar  0.928274  16.111128  12.708581
Ar  14.916325  3.303689  16.930206
Ar  16.891148  6.500276  16.083917
Ar  2.951602  6.382206  14.518562
Ar  3.216384  6.888677  0.823011
Ar  15.295500  11.178651  4.645756
Ar  1.229128  8.641362  5.704170
Ar  4.512244  8.471421  4.296350
Ar  4.612227  5.932769  6.866846
Ar  15.938989  8.278929  8.900617
Ar  0.598120  7.724640  12.352969
Ar  2.351710  7.894135  9.512970
Ar  1.258992  3.306662  13.481935
Ar  15.489539  10.010943  14.286385
Ar  16.038085  9.551726  0.767940
Ar  3.353142  14.621063  2.190012
Ar  1.222150  10.786682  3.003673
Ar  17.057563  14.470509  3.678504
Ar  0.913068  11.595086  7.185274
Ar  3.782484  12.454307  4.895109
Ar  4.410286  11.053872  8.680475
Ar  2.540336  15.460084  5.946092
Ar  0.155893  12.474945  10.661898
Ar  1.631741  16.150927  9.291890
Ar  2.091362  10.746367  13.983603
Ar  17.075275  13.324910  0.161120
Ar  5.890777  16.384237  0.548933
Ar  8.302604  0.963013  15.681508
Ar  8.545507  0.310332  2.699840
Ar  5.380481  2.509714  0.972066
Ar  6.821186  14.411584  4.051873
Ar  6.966844  3.705971  5.894396
Ar  7.509523  0.124060  6.492913
Ar  1.998876  4.356346  9.862794
Ar  4.394896  0.742425  10.944872
Ar  6.618712  3.183494  9.537936
Ar  9.012272  1.314787  12.185275
Ar  3.417034  0.965514  14.956986
Ar  6.203570  5.257752  15.968251
Ar  5.613680  8.191737  14.171036
Ar  9.069272  3.636887  2.392232
Ar  6.874960  11.205327  2.429449
Ar  5.930044  5.537253  2.736943
Ar  8.531783  6.181233  7.969153
Ar  5.069854  6.189350  11.239914
Ar  7.657300  8.935972  9.709846
Ar  5.634523  3.091719  13.271663
Ar  10.534292  11.682890  9.477471
Ar  8.537444  5.545499  13.464400
Ar  5.524896  11.218183  12.557312
Ar  3.661462  11.084947  17.039161
Ar  6.650460  15.795341  13.235097
Ar  9.895651  10.859428  16.580542
Ar  7.622390  13.526558  17.144749
Ar  7.624750  9.761336  6.251303
Ar  10.140423  13.935581  2.569589
Ar  8.277907  12.946734  6.853149
Ar  5.215361  14.509945  7.793214
Ar  3.421198  13.977698  11.004667
Ar  7.772923  13.656575  10.525750
Ar  9.280777  13.156497  13.640095
Ar  3.398282  14.120317  15.047255
Ar  11.661659  1.419420  0.991789
Ar  10.875902  5.079001  16.588724
Ar  14.059145  16.944667  3.000468
Ar  14.094339  6.320784  1.014701
Ar  11.479435  1.396203  4.708779
Ar  14.836924  3.690115  4.566459
Ar  13.948527  0.262339  8.226155
Ar  11.498519  4.802963  6.197244
Ar  10.714847  1.861477  8.564413
Ar  13.624457  2.328325  11.227503
Ar  15.299061  1.574538  13.851802
Ar  11.850459  2.619921  14.273261
Ar  7.606880  8.112296  0.543278
Ar  12.658120  7.956963  15.212234
Ar  0.338392  6.667081  2.959794
Ar  11.252929  8.734213  1.822161
Ar  9.758934  7.124171  4.397444
Ar  15.167055  7.337262  5.530412
Ar  14.564113  5.189319  8.214963
Ar  11.153430  8.484915  7.771395
Ar  10.822357  4.721305  10.649941
Ar  12.156162  8.507716  11.072420
Ar  14.462357  4.777892  13.682578
Ar  9.284130  9.602586  13.171313
Ar  13.522113  11.890493  16.252840
Ar  13.778970  15.936385  16.416516
Ar  13.921330  13.743726  2.190313
Ar  12.411480  14.655186  5.753654
Ar  10.944934  11.092954  4.691272
Ar  16.091122  14.722912  7.363375
Ar  14.430213  11.489262  8.103538
Ar  10.840428  15.065117  9.417178
Ar  13.269428  11.985303  12.179668
Ar  12.338184  15.507000  12.852957
Ar  15.762293  13.666935  14.035001
Ar  10.332655  15.282002  16.316862
108
Frame 98 box=17.158430
Ar  17.129854  0.185904  16.467580
Ar  1.001026  3.724096  0.047862
Ar  1.388678  0.688666  2.260101
Ar  2.723754  3.820405  4.251303
Ar  17.050157  0.730907  5.502676
Ar  4.512137  0.550643  4.013609
Ar  3.297631  1.848767  7.229762
Ar  0.322694  4.829153  6.988499
Ar  15.235561  15.672574  10.970447
Ar  16.942340  1.848876  10.129184
Ar  0.819513  16.476988  12.910272
Ar  14.900368  2.920989  16.717099
Ar  17.086207  6.863439  16.214154
Ar  2.859000  6.002508  14.759246
Ar  2.809467  7.147602  0.799834
Ar  15.295500  11.178651  4.645756
Ar  1.229128  8.641362  5.704170
Ar  4.434285  8.671709  4.053210
Ar  4.883308  6.386848  6.999238
Ar  16.293488  8.339957  8.721388
Ar  0.495315  7.871996  11.754585
Ar  3.000238  8.174061  9.130825
Ar  0.753975  3.048362  13.527253
Ar  15.410474  9.614460  14.370111
Ar  15.499897  9.768005  1.142855
Ar  3.353142  14.621063  2.190012
Ar  1.571201  10.717563  2.581012
Ar  16.987644  14.399259  3.843529
Ar  1.436841  11.444029  7.468455
Ar  4.239488  12.100136  4.737773
Ar  4.764864  11.028105  8.458731
Ar  2.213474  15.108155  6.101797
Ar  17.004364  12.278780  11.125990
Ar  1.631741  16.150927  9.291890
Ar  1.502255  10.906934  13.885537
Ar  17.084163  13.518022  0.327403
Ar  5.717055  16.314504  0.068189
Ar  8.377285  1.174399  15.382497
Ar  8.285527  0.190402  3.013035
Ar  5.130700  2.699074  1.209630
Ar  6.941792  14.461457  4.501040
Ar  6.553542  3.569525  5.615271
Ar  7.628594  17.142765  7.137256
Ar  2.566282  4.224377  9.917048
Ar  3.563836  0.947042  11.593220
Ar  6.263409  2.682977  9.548383
Ar  8.977213  17.026897  11.478503
Ar  3.420870  1.376571  15.643774
Ar  6.365644  4.875041  16.012382
Ar  6.058668  8.026052  14.251723
Ar  8.649997  3.433607  1.701751
Ar  7.019161  11.158470  2.751978
Ar  5.992488  5.829213  2.721125
Ar  8.734114  5.844111  8.656084
Ar  5.497665  5.829501  11.257416
Ar  7.393732  9.177396  9.827799
Ar  5.873784  2.684485  13.456332
Ar  10.616055  11.543786  10.062054
Ar  9.384678  5.052049  13.999184
Ar  5.322224  11.131368  13.044866
Ar  4.186418  11.416611  16.902589
Ar  6.233779  15.623703  13.657997
Ar  10.098094  11.159340  16.699738
Ar  7.622390  13.526558  17.144749
Ar  7.533966  9.473867  6.079961
Ar  10.201482  13.814211  2.532612
Ar  7.920870  12.622197  7.283043
Ar  4.856173  14.761812  8.071452
Ar  3.342754  13.837838  11.226755
Ar  7.519868  13.879050  10.326192
Ar  8.974285  13.291405  13.781364
Ar  3.041351  14.586204  14.701388
Ar  11.834278  1.365623  0.459633
Ar  11.166015  5.271892  17.043450
Ar  13.981347  0.114081  3.006343
Ar  14.031277  6.334962  1.237366
Ar  11.332995  1.993768  4.591854
Ar  14.945640  3.238701  3.467010
Ar  13.566864  0.416542  8.097887
Ar  12.003400  5.361184  6.071131
Ar  10.279344  2.131649  8.162467
Ar  13.595509  2.147527  11.077523
Ar  14.948309  0.461353  13.845585
Ar  11.779397  2.320245  14.059302
Ar  7.678537  8.359646  0.578377
Ar  12.333507  8.502245  15.724055
Ar  17.136822  6.291904  2.567369
Ar  11.226859  8.856752  1.941727
Ar  9.258559  6.611069  4.137365
Ar  15.259245  7.764955  5.410737
Ar  14.393714  4.749943  8.623938
Ar  12.451693  8.550393  7.573743
Ar  11.287446  4.797801  10.839460
Ar  11.975721  8.250406  11.220697
Ar  14.153214  5.827118  13.641832
Ar  9.310513  8.994680  13.031191
Ar  13.522113  11.890493  16.252840
Ar  13.808222  15.703502  16.639867
Ar  14.003698  13.570620  2.273063
Ar  12.488411  14.825484  6.273072
Ar  10.947675  10.964312  5.125542
Ar  16.091122  14.722912  7.363375
Ar  14.283522  11.817608  7.918669
Ar  11.471689  15.164493  9.801198
Ar  13.269428  11.985303  12.179668
Ar  12.250724  15.723910  13.322898
Ar  15.633108  14.052239  14.269299
Ar  10.449583  15.706963  16.332124
108
Frame 99 box=17.158430
Ar  17.129854  0.185904  16.467580
Ar  1.466000  4.012353  0.766291
Ar  1.633983  0.843092  2.270992
Ar  2.625219  3.807668  4.158375
Ar  16.947944  0.927971  5.879575
Ar  4.906620  0.642670  3.698693
Ar  3.536671  1.535839  6.990814
Ar  0.652599  5.028752  7.068048
Ar  15.120576  15.470198  10.847371
Ar  16.676156  1.738577  9.401519
Ar  1.050568  16.304544  12.780228
Ar  14.986594  3.207939  16.461538
Ar  16.282176  6.228159  16.240190
Ar  2.946329  5.239179  14.722259
Ar  2.956214  7.164839  0.627986
Ar  15.942751  11.225397  4.469148
Ar  1.229128  8.641362  5.704170
Ar  4.706452  9.279071  4.053716
Ar  4.961774  6.456477  7.059353
Ar  16.450853  8.129798  9.036343
Ar  0.152511  7.320795  12.439343
Ar  3.102916  8.107605  9.503817
Ar  0.753975  3.048362  13.527253
Ar  15.913835  10.110002  14.049810
Ar  15.061836  9.314684  1.386182
Ar  3.792570  14.370814  2.359180
Ar  1.659852  10.052242  2.417462
Ar  16.987644  14.399259  3.843529
Ar  1.097325  11.404680  7.832829
Ar  4.072241  12.578772  5.559769
Ar  4.940678  10.770978  8.300276
Ar  2.436638  15.460934  5.834275
Ar  17.004364  12.278780  11.125990
Ar  1.467601  15.836555  9.127797
Ar  2.250387  10.533056  13.707135
Ar  0.225140  13.630036  0.456669
Ar  5.588246  16.657060  0.242032
Ar  7.988224  1.178138  15.655653
Ar  8.587756  0.202195  2.933056
Ar  4.711275  3.064682  1.165732
Ar  6.941792  14.461457  4.501040
Ar  6.841985  3.198180  5.473993
Ar  7.669333  0.027081  6.463722
Ar  2.251471  4.189842  10.537522
Ar  3.810693  0.747477  11.684474
Ar  6.652859  1.774010  9.560399
Ar  9.199971  0.006245  12.232692
Ar  3.301819  1.383509  15.585117
Ar  6.415838  5.354641  16.247435
Ar  5.847344  7.987833  13.922267
Ar  8.649997  3.433607  1.701751
Ar  7.237251  11.525766  2.708639
Ar  6.305220  6.489437  2.400839
Ar  9.053385  5.836951  8.038624
Ar  5.832581  6.074524  10.701625
Ar  7.753956  8.856645  9.396738
Ar  6.236912  2.934041  13.172071
Ar  10.622612  11.411166  9.152223
Ar  9.192534  5.173410  13.822758
Ar  5.770633  11.403335  13.303088
Ar  4.300580  11.303534  16.879902
Ar  6.250035  15.528870  14.064639
Ar  10.098094  11.159340  16.699738
Ar  7.442951  13.410832  0.078907
Ar  7.553826  9.165894  5.854236
Ar  10.234028  14.519923  2.963917
Ar  7.898194  12.466379  7.437764
Ar  5.065326  15.231079  8.340807
Ar  3.150902  13.111016  11.319444
Ar  7.837957  14.509224  10.399288
Ar  9.142585  13.085494  13.606379
Ar  2.816062  13.976013  15.035673
Ar  11.417129  1.170148  0.800569
Ar  11.191646  4.878728  0.026748
Ar  13.994489  0.321417  3.119522
Ar  13.883895  5.789117  1.706026
Ar  10.905911  2.050266  5.040775
Ar  15.458688  3.687904  4.088023
Ar  13.566864  0.416542  8.097887
Ar  12.396410  5.414867  5.311611
Ar  10.105798  1.785380  8.900873
Ar  13.700019  1.821462  11.030885
Ar  14.948309  0.461353  13.845585
Ar  11.398538  2.298467  13.993259
Ar  7.130371  9.225283  0.186747
Ar  12.752050  8.052684  15.748051
Ar  17.081009  6.409692  2.759236
Ar  10.778413  8.835196  2.480675
Ar  8.992468  6.084763  4.836351
Ar  14.860759  7.950026  4.974164
Ar  13.994879  4.558165  8.144870
Ar  11.905580  8.013502  7.636315
Ar  11.920622  5.031802  11.071994
Ar  11.948353  8.432506  11.164256
Ar  14.509373  5.477276  13.322544
Ar  9.236286  8.911559  13.506820
Ar  13.985568  11.804547  16.438475
Ar  13.837296  15.925223  16.751384
Ar  13.575113  13.596156  2.586999
Ar  12.454477  14.896266  5.974344
Ar  10.464660  11.286488  5.423539
Ar  15.556368  14.901506  7.427746
Ar  13.879785  11.405593  7.628441
Ar  11.345743  15.127199  9.242043
Ar  13.167296  12.303413  12.165685
Ar  12.273544  15.488288  13.526792
Ar  16.189103  13.633703  14.423719
Ar  10.099756  15.427146  16.406055
